@RELATION ThesisHub

@ATTRIBUTE Fact_ID {F001,F002,F003,F004,F005,F006,F007,F008,F009,F010,F011,F012,F013,F014,F015,F016,F017,F018,F019,F020,F021,F022,F023,F024,F025,F026,F027,F028,F029,F030,F031,F032,F033,F034,F035,F036,F037,F038,F039,F040,F041,F042,F043,F044,F045,F046,F047,F048,F049,F050,F051,F052,F053,F054,F055,F056,F057,F058,F059,F060,F061,F062,F063,F064,F065,F066,F067,F068,F069,F070,F071,F072,F073,F074,F075,F076,F077,F078,F079,F080,F081,F082,F083,F084,F085,F086,F087,F088,F089,F090,F091,F092,F093,F094,F095,F096,F097,F098,F099,F100,F101,F102,F103,F104,F105,F106,F107,F108,F109,F110,F111,F112,F113,F114,F115,F116,F117,F118,F119,F120,F121,F122,F123,F124,F125,F126,F127,F128,F129,F130,F131,F132,F133,F134,F135,F136,F137,F138,F139,F140,F141,F142,F143,F144,F145,F146,F147,F148,F149,F150,F151,F152,F153,F154,F155,F156,F157,F158,F159,F160,F161,F162,F163,F164,F165,F166,F167,F168,F169,F170,F171,F172,F173,F174,F175,F176,F177,F178,F179,F180,F181,F182,F183,F184,F185,F186,F187,F188,F189,F190,F191,F192,F193,F194,F195,F196,F197,F198,F199,F200,F201,F202,F203,F204,F205,F206,F207,F208,F209,F210,F211,F212,F213,F214,F215,F216,F217,F218,F219,F220,F221,F222,F223,F224,F225,F226,F227,F228,F229,F230,F231,F232,F233,F234,F235,F236,F237,F238,F239,F240,F241,F242,F243,F244,F245,F246,F247,F248,F249,F250,F251,F252,F253,F254,F255,F256,F257,F258,F259,F260,F261,F262,F263,F264,F265,F266,F267,F268,F269,F270,F271,F272,F273,F274,F275,F276,F277,F278,F279,F280,F281,F282,F283,F284,F285,F286,F287,F288,F289,F290,F291,F292,F293,F294,F295,F296,F297,F298,F299,F300,F301,F302,F303,F304,F305,F306,F307,F308,F309,F310,F311,F312,F313,F314,F315,F316,F317,F318,F319,F320,F321,F322,F323,F324,F325,F326,F327,F328,F329,F330,F331,F332,F333,F334,F335,F336,F337,F338,F339,F340,F341,F342,F343,F344,F345,F346,F347,F348,F349,F350,F351,F352,F353,F354,F355,F356,F357,F358,F359,F360,F361,F362,F363,F364,F365,F366,F367,F368,F369,F370,F371,F372,F373,F374,F375,F376,F377,F378,F379,F380,F381,F382,F383,F384,F385,F386,F387,F388,F389,F390,F391,F392,F393,F394,F395,F396,F397,F398,F399,F400,F401,F402,F403,F404,F405,F406,F407,F408,F409,F410,F411,F412,F413,F414,F415,F416,F417,F418,F419,F420,F421,F422,F423,F424,F425,F426,F427,F428,F429,F430,F431,F432,F433,F434,F435,F436,F437,F438,F439,F440,F441,F442,F443,F444,F445,F446,F447,F448,F449,F450,F451,F452,F453,F454,F455,F456,F457,F458,F459,F460,F461,F462,F463,F464,F465,F466,F467,F468,F469,F470,F471,F472,F473,F474,F475,F476,F477,F478,F479,F480,F481,F482,F483,F484,F485,F486,F487,F488,F489,F490,F491,F492,F493,F494,F495,F496,F497,F498,F499,F500}
@ATTRIBUTE Student_ID {S101,S102,S103,S104,S105,S106,S107,S108,S109,S110,S111,S112,S113,S114,S115,S116,S117,S118,S119,S120,S121,S122,S123,S124,S125,S126,S127,S128,S129,S130,S131,S132,S133,S134,S135,S136,S137,S138,S139,S140,S141,S142,S143,S144,S145,S146,S147,S148,S149,S150,S151,S152,S153,S154,S155,S156,S157,S158,S159,S160,S161,S162,S163,S164,S165,S166,S167,S168,S169,S170,S171,S172,S173,S174,S175,S176,S177,S178,S179,S180,S181,S182,S183,S184,S185,S186,S187,S188,S189,S190,S191,S192,S193,S194,S195,S196,S197,S198,S199,S200,S201,S202,S203,S204,S205,S206,S207,S208,S209,S210,S211,S212,S213,S214,S215,S216,S217,S218,S219,S220,S221,S222,S223,S224,S225,S226,S227,S228,S229,S230,S231,S232,S233,S234,S235,S236,S237,S238,S239,S240,S241,S242,S243,S244,S245,S246,S247,S248,S249,S250,S251,S252,S253,S254,S255,S256,S257,S258,S259,S260,S261,S262,S263,S264,S265,S266,S267,S268,S269,S270,S271,S272,S273,S274,S275,S276,S277,S278,S279,S280,S281,S282,S283,S284,S285,S286,S287,S288,S289,S290,S291,S292,S293,S294,S295,S296,S297,S298,S299,S300,S301,S302,S303,S304,S305,S306,S307,S308,S309,S310,S311,S312,S313,S314,S315,S316,S317,S318,S319,S320,S321,S322,S323,S324,S325,S326,S327,S328,S329,S330,S331,S332,S333,S334,S335,S336,S337,S338,S339,S340,S341,S342,S343,S344,S345,S346,S347,S348,S349,S350,S351,S352,S353,S354,S355,S356,S357,S358,S359,S360,S361,S362,S363,S364,S365,S366,S367,S368,S369,S370,S371,S372,S373,S374,S375,S376,S377,S378,S379,S380,S381,S382,S383,S384,S385,S386,S387,S388,S389,S390,S391,S392,S393,S394,S395,S396,S397,S398,S399,S400,S401,S402,S403,S404,S405,S406,S407,S408,S409,S410,S411,S412,S413,S414,S415,S416,S417,S418,S419,S420,S421,S422,S423,S424,S425,S426,S427,S428,S429,S430,S431,S432,S433,S434,S435,S436,S437,S438,S439,S440,S441,S442,S443,S444,S445,S446,S447,S448,S449,S450,S451,S452,S453,S454,S455,S456,S457,S458,S459,S460,S461,S462,S463,S464,S465,S466,S467,S468,S469,S470,S471,S472,S473,S474,S475,S476,S477,S478,S479,S480,S481,S482,S483,S484,S485,S486,S487,S488,S489,S490,S491,S492,S493,S494,S495,S496,S497,S498,S499,S500,S501,S502,S503,S504,S505,S506,S507,S508,S509,S510,S511,S512,S513,S514,S515,S516,S517,S518,S519,S520,S521,S522,S523,S524,S525,S526,S527,S528,S529,S530,S531,S532,S533,S534,S535,S536,S537,S538,S539,S540,S541,S542,S543,S544,S545,S546,S547,S548,S549,S550,S551,S552,S553,S554,S555,S556,S557,S558,S559,S560,S561,S562,S563,S564,S565,S566,S567,S568,S569,S570,S571,S572,S573,S574,S575,S576,S577,S578,S579,S580,S581,S582,S583,S584,S585,S586,S587,S588,S589,S590,S591,S592,S593,S594,S595,S596,S597,S598,S599,S600}
@ATTRIBUTE CGPA NUMERIC
@ATTRIBUTE Department {BBA,CSE,EEE,ENG}
@ATTRIBUTE Semester NUMERIC
@ATTRIBUTE Attendance_% NUMERIC
@ATTRIBUTE Teacher_ID {T201,T202,T203,T204,T205,T206,T207,T208,T209,T210}
@ATTRIBUTE Expertise_Area {AI,Cybersecurity,Data_Science,IoT,Networking,Software_Engineering}
@ATTRIBUTE Teacher_Rating NUMERIC
@ATTRIBUTE Supervised_Groups NUMERIC
@ATTRIBUTE Thesis_ID {TH301,TH302,TH303,TH304,TH305,TH306,TH307,TH308,TH309,TH310,TH311,TH312,TH313,TH314,TH315,TH316,TH317,TH318,TH319,TH320}
@ATTRIBUTE Thesis_Topic {AI_Based_Project_1,AI_Based_Project_10,AI_Based_Project_12,AI_Based_Project_13,AI_Based_Project_14,AI_Based_Project_15,AI_Based_Project_16,AI_Based_Project_17,AI_Based_Project_18,AI_Based_Project_19,AI_Based_Project_20,AI_Based_Project_21,AI_Based_Project_22,AI_Based_Project_23,AI_Based_Project_24,AI_Based_Project_25,AI_Based_Project_27,AI_Based_Project_28,AI_Based_Project_29,AI_Based_Project_3,AI_Based_Project_30,AI_Based_Project_31,AI_Based_Project_32,AI_Based_Project_37,AI_Based_Project_38,AI_Based_Project_39,AI_Based_Project_4,AI_Based_Project_40,AI_Based_Project_42,AI_Based_Project_43,AI_Based_Project_45,AI_Based_Project_46,AI_Based_Project_47,AI_Based_Project_48,AI_Based_Project_50,AI_Based_Project_6,AI_Based_Project_7,AI_Based_Project_9,Cybersecurity_Based_Project_1,Cybersecurity_Based_Project_10,Cybersecurity_Based_Project_11,Cybersecurity_Based_Project_12,Cybersecurity_Based_Project_13,Cybersecurity_Based_Project_14,Cybersecurity_Based_Project_15,Cybersecurity_Based_Project_16,Cybersecurity_Based_Project_17,Cybersecurity_Based_Project_18,Cybersecurity_Based_Project_2,Cybersecurity_Based_Project_20,Cybersecurity_Based_Project_21,Cybersecurity_Based_Project_22,Cybersecurity_Based_Project_23,Cybersecurity_Based_Project_24,Cybersecurity_Based_Project_25,Cybersecurity_Based_Project_26,Cybersecurity_Based_Project_27,Cybersecurity_Based_Project_28,Cybersecurity_Based_Project_3,Cybersecurity_Based_Project_30,Cybersecurity_Based_Project_32,Cybersecurity_Based_Project_33,Cybersecurity_Based_Project_35,Cybersecurity_Based_Project_36,Cybersecurity_Based_Project_37,Cybersecurity_Based_Project_38,Cybersecurity_Based_Project_39,Cybersecurity_Based_Project_4,Cybersecurity_Based_Project_41,Cybersecurity_Based_Project_42,Cybersecurity_Based_Project_43,Cybersecurity_Based_Project_44,Cybersecurity_Based_Project_46,Cybersecurity_Based_Project_47,Cybersecurity_Based_Project_48,Cybersecurity_Based_Project_49,Cybersecurity_Based_Project_5,Cybersecurity_Based_Project_50,Cybersecurity_Based_Project_6,Cybersecurity_Based_Project_7,Cybersecurity_Based_Project_8,Cybersecurity_Based_Project_9,Data_Science_Based_Project_1,Data_Science_Based_Project_10,Data_Science_Based_Project_11,Data_Science_Based_Project_12,Data_Science_Based_Project_13,Data_Science_Based_Project_14,Data_Science_Based_Project_15,Data_Science_Based_Project_16,Data_Science_Based_Project_18,Data_Science_Based_Project_19,Data_Science_Based_Project_20,Data_Science_Based_Project_21,Data_Science_Based_Project_23,Data_Science_Based_Project_24,Data_Science_Based_Project_25,Data_Science_Based_Project_26,Data_Science_Based_Project_27,Data_Science_Based_Project_28,Data_Science_Based_Project_29,Data_Science_Based_Project_30,Data_Science_Based_Project_31,Data_Science_Based_Project_32,Data_Science_Based_Project_33,Data_Science_Based_Project_34,Data_Science_Based_Project_36,Data_Science_Based_Project_37,Data_Science_Based_Project_38,Data_Science_Based_Project_39,Data_Science_Based_Project_4,Data_Science_Based_Project_40,Data_Science_Based_Project_41,Data_Science_Based_Project_42,Data_Science_Based_Project_43,Data_Science_Based_Project_44,Data_Science_Based_Project_45,Data_Science_Based_Project_46,Data_Science_Based_Project_47,Data_Science_Based_Project_48,Data_Science_Based_Project_49,Data_Science_Based_Project_5,Data_Science_Based_Project_50,Data_Science_Based_Project_6,Data_Science_Based_Project_7,Data_Science_Based_Project_9,IoT_Based_Project_1,IoT_Based_Project_10,IoT_Based_Project_11,IoT_Based_Project_13,IoT_Based_Project_14,IoT_Based_Project_15,IoT_Based_Project_16,IoT_Based_Project_17,IoT_Based_Project_19,IoT_Based_Project_2,IoT_Based_Project_20,IoT_Based_Project_21,IoT_Based_Project_22,IoT_Based_Project_23,IoT_Based_Project_25,IoT_Based_Project_26,IoT_Based_Project_28,IoT_Based_Project_31,IoT_Based_Project_32,IoT_Based_Project_33,IoT_Based_Project_34,IoT_Based_Project_35,IoT_Based_Project_36,IoT_Based_Project_37,IoT_Based_Project_39,IoT_Based_Project_4,IoT_Based_Project_42,IoT_Based_Project_43,IoT_Based_Project_44,IoT_Based_Project_45,IoT_Based_Project_47,IoT_Based_Project_48,IoT_Based_Project_49,IoT_Based_Project_5,IoT_Based_Project_50,IoT_Based_Project_6,IoT_Based_Project_7,IoT_Based_Project_8,IoT_Based_Project_9,Networking_Based_Project_11,Networking_Based_Project_13,Networking_Based_Project_14,Networking_Based_Project_16,Networking_Based_Project_17,Networking_Based_Project_18,Networking_Based_Project_19,Networking_Based_Project_2,Networking_Based_Project_20,Networking_Based_Project_21,Networking_Based_Project_22,Networking_Based_Project_23,Networking_Based_Project_24,Networking_Based_Project_25,Networking_Based_Project_28,Networking_Based_Project_29,Networking_Based_Project_3,Networking_Based_Project_30,Networking_Based_Project_31,Networking_Based_Project_32,Networking_Based_Project_33,Networking_Based_Project_34,Networking_Based_Project_35,Networking_Based_Project_36,Networking_Based_Project_37,Networking_Based_Project_39,Networking_Based_Project_4,Networking_Based_Project_40,Networking_Based_Project_41,Networking_Based_Project_42,Networking_Based_Project_43,Networking_Based_Project_44,Networking_Based_Project_45,Networking_Based_Project_47,Networking_Based_Project_48,Networking_Based_Project_49,Networking_Based_Project_5,Networking_Based_Project_50,Networking_Based_Project_6,Networking_Based_Project_7,Networking_Based_Project_8,Networking_Based_Project_9,Software_Engineering_Based_Project_1,Software_Engineering_Based_Project_11,Software_Engineering_Based_Project_12,Software_Engineering_Based_Project_13,Software_Engineering_Based_Project_14,Software_Engineering_Based_Project_15,Software_Engineering_Based_Project_16,Software_Engineering_Based_Project_17,Software_Engineering_Based_Project_19,Software_Engineering_Based_Project_2,Software_Engineering_Based_Project_20,Software_Engineering_Based_Project_21,Software_Engineering_Based_Project_22,Software_Engineering_Based_Project_23,Software_Engineering_Based_Project_24,Software_Engineering_Based_Project_25,Software_Engineering_Based_Project_26,Software_Engineering_Based_Project_28,Software_Engineering_Based_Project_29,Software_Engineering_Based_Project_3,Software_Engineering_Based_Project_30,Software_Engineering_Based_Project_31,Software_Engineering_Based_Project_33,Software_Engineering_Based_Project_34,Software_Engineering_Based_Project_35,Software_Engineering_Based_Project_36,Software_Engineering_Based_Project_37,Software_Engineering_Based_Project_38,Software_Engineering_Based_Project_39,Software_Engineering_Based_Project_4,Software_Engineering_Based_Project_40,Software_Engineering_Based_Project_42,Software_Engineering_Based_Project_43,Software_Engineering_Based_Project_45,Software_Engineering_Based_Project_46,Software_Engineering_Based_Project_47,Software_Engineering_Based_Project_48,Software_Engineering_Based_Project_49,Software_Engineering_Based_Project_5,Software_Engineering_Based_Project_50,Software_Engineering_Based_Project_6,Software_Engineering_Based_Project_7}
@ATTRIBUTE Research_Domain {AI,Cybersecurity,Data_Science,IoT,Networking,Software_Engineering}
@ATTRIBUTE Thesis_Type {Application,Research}
@ATTRIBUTE Month {April,August,December,February,January,July,June,March,May,November,October,September}
@ATTRIBUTE Year NUMERIC
@ATTRIBUTE Final_Marks NUMERIC
@ATTRIBUTE Submission_Days NUMERIC
@ATTRIBUTE Feedback_Score NUMERIC
@ATTRIBUTE Task_Completion_% NUMERIC

@DATA
F001,S101,3.14,EEE,7,91,T210,AI,4.9,2,TH317,AI_Based_Project_23,AI,Application,April,2026,82,134,4.2,95
F002,S102,3.6,CSE,7,88,T206,Software_Engineering,4.4,2,TH303,Software_Engineering_Based_Project_23,Software_Engineering,Application,March,2026,90,150,4.9,79
F003,S103,3.71,BBA,8,92,T206,Data_Science,4.1,2,TH315,Data_Science_Based_Project_20,Data_Science,Research,February,2025,68,132,4.6,92
F004,S104,3.17,CSE,7,88,T201,IoT,4.3,1,TH312,IoT_Based_Project_19,IoT,Application,March,2024,64,140,3.9,86
F005,S105,2.57,CSE,8,71,T210,AI,3.9,3,TH302,AI_Based_Project_32,AI,Application,January,2025,60,94,4.2,80
F006,S106,2.87,CSE,7,75,T201,Software_Engineering,3.9,3,TH319,Software_Engineering_Based_Project_33,Software_Engineering,Application,November,2026,87,99,4.4,81
F007,S107,2.93,CSE,7,73,T205,Networking,4.1,3,TH304,Networking_Based_Project_47,Networking,Application,October,2024,80,114,4.2,99
F008,S108,2.56,CSE,7,84,T201,Networking,4.1,1,TH318,Networking_Based_Project_9,Networking,Research,June,2025,73,125,4.1,95
F009,S109,3.09,ENG,7,71,T202,AI,4.6,2,TH313,AI_Based_Project_32,AI,Research,November,2024,71,94,4.2,76
F010,S110,3.64,BBA,7,95,T210,Software_Engineering,4.7,1,TH305,Software_Engineering_Based_Project_42,Software_Engineering,Research,June,2024,67,100,4.1,75
F011,S111,3.98,ENG,7,87,T202,IoT,4.7,3,TH309,IoT_Based_Project_36,IoT,Application,October,2026,82,146,4.3,84
F012,S112,2.51,BBA,8,79,T206,Data_Science,4.4,3,TH318,Data_Science_Based_Project_29,Data_Science,Application,September,2026,77,136,4.2,83
F013,S113,2.66,ENG,7,86,T210,AI,3.9,2,TH312,AI_Based_Project_10,AI,Application,February,2026,84,137,4.7,84
F014,S114,3.88,CSE,7,96,T209,Software_Engineering,3.8,3,TH308,Software_Engineering_Based_Project_39,Software_Engineering,Research,December,2026,83,96,3.9,100
F015,S115,2.62,EEE,8,71,T203,IoT,5.0,1,TH320,IoT_Based_Project_28,IoT,Research,June,2024,68,93,4.3,90
F016,S116,3.91,BBA,7,85,T207,IoT,4.6,2,TH315,IoT_Based_Project_48,IoT,Application,July,2024,64,105,4.7,83
F017,S117,3.85,EEE,8,81,T201,AI,4.5,2,TH308,AI_Based_Project_13,AI,Application,March,2025,66,138,4.2,78
F018,S118,2.81,BBA,8,73,T202,Data_Science,4.1,1,TH319,Data_Science_Based_Project_21,Data_Science,Application,November,2026,81,123,4.1,77
F019,S119,2.76,BBA,8,97,T202,Networking,4.8,1,TH311,Networking_Based_Project_32,Networking,Application,September,2026,64,90,3.7,81
F020,S120,3.05,EEE,7,71,T202,IoT,5.0,2,TH311,IoT_Based_Project_37,IoT,Application,August,2026,75,145,4.4,92
F021,S121,3.09,CSE,7,84,T209,AI,4.2,1,TH304,AI_Based_Project_7,AI,Research,November,2024,66,114,3.6,83
F022,S122,3.44,ENG,7,88,T208,IoT,4.7,1,TH310,IoT_Based_Project_50,IoT,Application,September,2025,61,146,4.2,88
F023,S123,3.45,BBA,8,98,T209,Data_Science,4.0,3,TH308,Data_Science_Based_Project_36,Data_Science,Research,January,2024,70,136,4.8,77
F024,S124,3.24,CSE,8,75,T201,Cybersecurity,4.3,1,TH305,Cybersecurity_Based_Project_28,Cybersecurity,Application,September,2024,64,131,4.7,85
F025,S125,2.94,EEE,8,92,T204,Cybersecurity,4.5,2,TH311,Cybersecurity_Based_Project_20,Cybersecurity,Research,December,2025,81,150,4.9,72
F026,S126,3.56,EEE,8,74,T205,IoT,4.8,3,TH306,IoT_Based_Project_43,IoT,Application,May,2024,74,113,4.0,92
F027,S127,2.92,EEE,8,73,T203,Cybersecurity,4.1,2,TH315,Cybersecurity_Based_Project_23,Cybersecurity,Application,March,2024,73,147,3.5,71
F028,S128,2.88,EEE,8,95,T208,IoT,4.9,3,TH319,IoT_Based_Project_43,IoT,Application,December,2025,63,135,4.9,97
F029,S129,3.9,ENG,8,96,T207,Data_Science,4.2,3,TH302,Data_Science_Based_Project_37,Data_Science,Application,September,2026,95,116,4.0,94
F030,S130,3.65,BBA,7,73,T201,IoT,4.0,1,TH315,IoT_Based_Project_14,IoT,Application,July,2026,78,112,4.4,84
F031,S131,2.75,ENG,7,87,T203,Networking,4.0,1,TH305,Networking_Based_Project_3,Networking,Research,July,2026,94,108,4.3,76
F032,S132,2.65,BBA,7,100,T207,AI,4.5,2,TH314,AI_Based_Project_27,AI,Research,October,2025,67,91,4.8,72
F033,S133,3.34,ENG,8,89,T206,Cybersecurity,4.0,2,TH311,Cybersecurity_Based_Project_41,Cybersecurity,Research,August,2025,61,105,4.9,72
F034,S134,3.15,BBA,8,95,T207,Data_Science,4.3,1,TH306,Data_Science_Based_Project_42,Data_Science,Application,March,2025,80,112,4.3,95
F035,S135,3.36,CSE,7,82,T209,Networking,4.5,3,TH319,Networking_Based_Project_14,Networking,Research,December,2025,64,110,3.6,73
F036,S136,3.28,ENG,8,71,T204,AI,5.0,3,TH311,AI_Based_Project_38,AI,Application,November,2024,73,91,4.2,100
F037,S137,3.3,BBA,8,89,T202,IoT,5.0,1,TH308,IoT_Based_Project_17,IoT,Application,February,2025,64,137,3.8,91
F038,S138,2.82,ENG,7,75,T201,Cybersecurity,4.7,2,TH302,Cybersecurity_Based_Project_39,Cybersecurity,Research,September,2025,91,90,4.6,94
F039,S139,3.59,BBA,8,81,T205,Networking,4.1,3,TH302,Networking_Based_Project_22,Networking,Research,October,2024,71,143,4.2,84
F040,S140,3.18,CSE,7,93,T208,Software_Engineering,4.4,1,TH311,Software_Engineering_Based_Project_22,Software_Engineering,Application,November,2025,73,98,4.1,73
F041,S141,2.82,CSE,7,81,T210,IoT,4.4,3,TH305,IoT_Based_Project_39,IoT,Application,July,2024,62,133,4.4,89
F042,S142,2.83,EEE,8,89,T201,Software_Engineering,4.4,3,TH318,Software_Engineering_Based_Project_7,Software_Engineering,Research,April,2024,85,108,4.6,72
F043,S143,3.22,CSE,8,75,T204,IoT,4.8,1,TH314,IoT_Based_Project_2,IoT,Research,May,2026,61,153,4.8,82
F044,S144,2.96,BBA,7,82,T208,Software_Engineering,4.3,1,TH320,Software_Engineering_Based_Project_19,Software_Engineering,Research,February,2026,66,133,4.7,98
F045,S145,3.29,CSE,8,83,T204,Data_Science,4.2,3,TH305,Data_Science_Based_Project_9,Data_Science,Application,January,2024,75,106,4.8,87
F046,S146,3.95,EEE,7,98,T207,Networking,4.6,2,TH307,Networking_Based_Project_49,Networking,Research,May,2025,83,156,4.8,93
F047,S147,3.13,BBA,8,100,T210,AI,4.6,1,TH316,AI_Based_Project_10,AI,Application,May,2026,89,99,3.8,91
F048,S148,3.03,BBA,8,74,T209,IoT,4.4,1,TH317,IoT_Based_Project_37,IoT,Application,October,2026,88,134,4.6,78
F049,S149,3.91,ENG,8,100,T203,AI,4.5,1,TH303,AI_Based_Project_15,AI,Research,April,2026,69,157,4.0,95
F050,S150,3.55,CSE,7,87,T202,IoT,4.1,2,TH308,IoT_Based_Project_31,IoT,Research,June,2024,84,115,4.9,77
F051,S151,2.89,ENG,7,71,T206,Cybersecurity,4.6,3,TH301,Cybersecurity_Based_Project_30,Cybersecurity,Application,June,2026,76,117,3.9,89
F052,S152,3.01,ENG,7,83,T205,Software_Engineering,4.9,3,TH318,Software_Engineering_Based_Project_50,Software_Engineering,Research,April,2025,79,113,4.7,91
F053,S153,3.56,EEE,8,86,T210,AI,3.9,3,TH312,AI_Based_Project_30,AI,Research,June,2026,70,102,4.3,77
F054,S154,3.78,EEE,8,75,T204,Software_Engineering,4.9,1,TH304,Software_Engineering_Based_Project_20,Software_Engineering,Research,November,2026,70,123,3.6,78
F055,S155,3.23,EEE,7,75,T201,AI,4.7,1,TH320,AI_Based_Project_4,AI,Application,March,2025,67,156,4.0,97
F056,S156,3.07,EEE,7,75,T204,AI,4.2,3,TH311,AI_Based_Project_12,AI,Research,July,2026,76,144,4.5,89
F057,S157,3.82,CSE,8,83,T209,Software_Engineering,4.9,2,TH303,Software_Engineering_Based_Project_2,Software_Engineering,Research,April,2025,88,105,4.4,99
F058,S158,3.71,CSE,8,88,T207,AI,4.6,2,TH315,AI_Based_Project_28,AI,Application,April,2025,63,138,3.5,92
F059,S159,2.59,EEE,8,80,T207,AI,4.8,1,TH319,AI_Based_Project_3,AI,Research,March,2025,70,106,4.9,98
F060,S160,2.8,ENG,8,90,T210,Networking,4.8,1,TH313,Networking_Based_Project_32,Networking,Research,August,2025,78,124,3.7,71
F061,S161,3.13,BBA,8,73,T208,Cybersecurity,4.7,3,TH304,Cybersecurity_Based_Project_30,Cybersecurity,Research,February,2024,91,121,3.6,90
F062,S162,3.51,EEE,7,97,T208,Cybersecurity,3.8,1,TH302,Cybersecurity_Based_Project_9,Cybersecurity,Application,March,2024,75,90,3.8,79
F063,S163,2.8,CSE,7,76,T209,Data_Science,4.8,1,TH317,Data_Science_Based_Project_37,Data_Science,Application,June,2024,70,132,4.5,73
F064,S164,3.6,ENG,7,88,T210,Networking,4.7,2,TH315,Networking_Based_Project_28,Networking,Research,December,2025,72,106,4.1,91
F065,S165,3.53,ENG,8,100,T210,AI,3.9,3,TH309,AI_Based_Project_29,AI,Application,April,2026,94,102,4.5,78
F066,S166,3.25,BBA,7,93,T203,Networking,4.2,1,TH318,Networking_Based_Project_13,Networking,Research,September,2024,76,117,4.7,75
F067,S167,2.91,ENG,8,93,T204,Cybersecurity,5.0,1,TH312,Cybersecurity_Based_Project_47,Cybersecurity,Research,August,2026,82,126,3.6,75
F068,S168,2.5,EEE,7,81,T202,AI,4.2,3,TH318,AI_Based_Project_19,AI,Application,December,2026,71,101,4.6,91
F069,S169,3.89,BBA,8,95,T204,IoT,4.4,2,TH302,IoT_Based_Project_10,IoT,Application,September,2024,71,149,4.2,75
F070,S170,2.77,ENG,7,100,T206,Cybersecurity,4.3,3,TH309,Cybersecurity_Based_Project_48,Cybersecurity,Application,November,2024,72,101,4.2,88
F071,S171,2.75,ENG,8,71,T210,AI,4.2,1,TH314,AI_Based_Project_1,AI,Application,December,2024,69,131,4.8,90
F072,S172,3.32,ENG,8,97,T206,AI,4.9,2,TH304,AI_Based_Project_22,AI,Application,September,2025,90,95,4.1,72
F073,S173,3.76,ENG,8,77,T202,IoT,4.2,2,TH307,IoT_Based_Project_8,IoT,Research,April,2025,65,103,4.0,87
F074,S174,3.65,CSE,7,83,T202,Software_Engineering,4.2,2,TH304,Software_Engineering_Based_Project_21,Software_Engineering,Application,August,2025,87,107,4.2,89
F075,S175,3.58,ENG,7,99,T205,Cybersecurity,4.5,3,TH314,Cybersecurity_Based_Project_24,Cybersecurity,Application,December,2025,84,151,3.7,73
F076,S176,2.78,EEE,7,79,T206,Cybersecurity,4.4,3,TH312,Cybersecurity_Based_Project_22,Cybersecurity,Research,November,2026,62,135,4.9,73
F077,S177,3.7,ENG,8,97,T209,Networking,3.9,1,TH302,Networking_Based_Project_24,Networking,Application,January,2025,67,97,4.7,74
F078,S178,3.95,BBA,7,70,T201,Cybersecurity,4.6,2,TH302,Cybersecurity_Based_Project_33,Cybersecurity,Research,February,2024,93,117,4.2,78
F079,S179,2.72,CSE,8,89,T208,Data_Science,4.1,2,TH307,Data_Science_Based_Project_31,Data_Science,Application,April,2024,93,90,5.0,98
F080,S180,3.06,BBA,7,100,T204,Cybersecurity,4.5,3,TH307,Cybersecurity_Based_Project_47,Cybersecurity,Research,May,2024,81,105,4.2,98
F081,S181,3.14,ENG,8,74,T203,Networking,4.6,3,TH309,Networking_Based_Project_7,Networking,Application,April,2024,80,90,4.6,88
F082,S182,3.71,CSE,8,92,T207,Software_Engineering,3.9,3,TH306,Software_Engineering_Based_Project_23,Software_Engineering,Research,November,2026,69,156,4.9,91
F083,S183,3.14,EEE,7,90,T204,Cybersecurity,4.3,2,TH314,Cybersecurity_Based_Project_38,Cybersecurity,Research,October,2024,81,91,4.6,97
F084,S184,2.56,EEE,8,70,T206,Software_Engineering,4.1,1,TH318,Software_Engineering_Based_Project_2,Software_Engineering,Research,February,2024,79,131,4.3,76
F085,S185,2.93,ENG,7,100,T203,Cybersecurity,4.0,1,TH316,Cybersecurity_Based_Project_28,Cybersecurity,Research,September,2024,76,98,3.6,84
F086,S186,2.87,CSE,8,74,T207,IoT,4.7,3,TH317,IoT_Based_Project_4,IoT,Application,July,2025,63,119,4.5,70
F087,S187,3.27,EEE,7,84,T209,Software_Engineering,4.4,3,TH311,Software_Engineering_Based_Project_7,Software_Engineering,Research,February,2026,81,120,4.3,93
F088,S188,3.87,CSE,8,80,T210,IoT,4.3,2,TH309,IoT_Based_Project_10,IoT,Research,January,2026,87,124,4.6,76
F089,S189,3.54,ENG,7,78,T201,Cybersecurity,4.7,3,TH316,Cybersecurity_Based_Project_33,Cybersecurity,Research,December,2025,94,140,4.2,73
F090,S190,2.79,CSE,7,87,T208,Software_Engineering,4.1,1,TH305,Software_Engineering_Based_Project_46,Software_Engineering,Application,May,2025,79,145,4.8,75
F091,S191,2.58,BBA,8,81,T201,Data_Science,4.6,2,TH313,Data_Science_Based_Project_38,Data_Science,Application,November,2025,73,117,4.9,98
F092,S192,2.94,ENG,7,90,T210,IoT,4.3,1,TH309,IoT_Based_Project_35,IoT,Research,December,2026,70,146,4.7,94
F093,S193,2.86,CSE,8,73,T208,IoT,4.1,1,TH320,IoT_Based_Project_35,IoT,Application,September,2024,95,137,4.9,96
F094,S194,3.98,BBA,7,76,T208,Software_Engineering,4.2,1,TH301,Software_Engineering_Based_Project_48,Software_Engineering,Research,January,2024,91,113,4.4,77
F095,S195,3.35,BBA,8,98,T205,IoT,4.3,2,TH316,IoT_Based_Project_47,IoT,Research,November,2026,75,108,4.9,91
F096,S196,3.38,CSE,8,90,T203,Data_Science,4.0,2,TH316,Data_Science_Based_Project_48,Data_Science,Application,January,2025,63,119,3.6,100
F097,S197,3.63,CSE,7,88,T205,AI,4.7,3,TH313,AI_Based_Project_6,AI,Research,July,2024,85,94,4.4,99
F098,S198,3.34,EEE,7,93,T201,IoT,4.4,3,TH303,IoT_Based_Project_11,IoT,Application,July,2026,84,112,4.4,87
F099,S199,2.62,CSE,8,72,T204,AI,4.9,3,TH312,AI_Based_Project_20,AI,Research,May,2026,61,130,3.6,70
F100,S200,3.52,BBA,7,74,T202,Cybersecurity,3.9,2,TH310,Cybersecurity_Based_Project_15,Cybersecurity,Application,February,2025,84,135,4.9,76
F101,S201,3.25,EEE,7,86,T208,Data_Science,4.0,1,TH307,Data_Science_Based_Project_7,Data_Science,Research,November,2025,73,94,4.7,87
F102,S202,2.67,CSE,8,85,T203,IoT,4.4,2,TH319,IoT_Based_Project_2,IoT,Application,August,2025,80,96,3.8,83
F103,S203,3.99,BBA,8,86,T208,Software_Engineering,4.1,2,TH309,Software_Engineering_Based_Project_29,Software_Engineering,Research,October,2024,82,98,3.9,92
F104,S204,4.0,CSE,7,71,T207,AI,5.0,2,TH315,AI_Based_Project_3,AI,Research,January,2026,65,114,4.7,84
F105,S205,3.97,CSE,7,83,T210,Cybersecurity,3.8,1,TH304,Cybersecurity_Based_Project_35,Cybersecurity,Application,July,2025,67,95,3.7,89
F106,S206,3.69,EEE,7,88,T206,AI,4.3,1,TH320,AI_Based_Project_31,AI,Research,October,2025,74,153,4.2,77
F107,S207,3.98,CSE,8,93,T209,Software_Engineering,4.0,2,TH317,Software_Engineering_Based_Project_7,Software_Engineering,Application,September,2025,71,125,4.6,99
F108,S208,2.92,EEE,8,77,T203,Data_Science,4.5,1,TH306,Data_Science_Based_Project_1,Data_Science,Research,October,2024,66,127,4.3,74
F109,S209,2.56,EEE,7,78,T202,AI,4.5,3,TH304,AI_Based_Project_27,AI,Application,March,2025,88,102,3.9,76
F110,S210,2.97,BBA,8,90,T207,Networking,3.9,2,TH311,Networking_Based_Project_3,Networking,Application,May,2025,67,117,3.7,77
F111,S211,3.48,ENG,8,85,T210,AI,4.2,1,TH320,AI_Based_Project_50,AI,Application,December,2026,71,124,3.8,87
F112,S212,2.87,EEE,8,99,T204,Cybersecurity,3.8,2,TH313,Cybersecurity_Based_Project_17,Cybersecurity,Application,April,2025,67,97,4.1,91
F113,S213,2.87,CSE,7,75,T202,Data_Science,4.3,2,TH304,Data_Science_Based_Project_26,Data_Science,Application,February,2026,75,101,3.6,92
F114,S214,3.49,ENG,7,77,T209,Data_Science,4.2,2,TH315,Data_Science_Based_Project_19,Data_Science,Application,February,2026,67,107,4.0,73
F115,S215,3.46,ENG,7,99,T202,IoT,3.8,3,TH307,IoT_Based_Project_13,IoT,Research,July,2025,87,99,4.7,77
F116,S216,3.23,EEE,7,90,T201,Data_Science,4.7,1,TH301,Data_Science_Based_Project_23,Data_Science,Application,December,2026,72,92,4.9,81
F117,S217,2.54,EEE,8,78,T210,Data_Science,4.6,1,TH318,Data_Science_Based_Project_4,Data_Science,Research,August,2026,75,97,4.5,74
F118,S218,2.85,ENG,8,87,T204,Cybersecurity,4.3,3,TH304,Cybersecurity_Based_Project_26,Cybersecurity,Research,June,2026,89,111,3.8,98
F119,S219,3.17,CSE,8,94,T203,Cybersecurity,4.2,1,TH318,Cybersecurity_Based_Project_33,Cybersecurity,Application,February,2024,84,118,4.0,75
F120,S220,3.29,EEE,8,73,T208,Networking,4.0,1,TH302,Networking_Based_Project_37,Networking,Application,September,2025,81,142,3.5,83
F121,S221,3.5,ENG,8,80,T209,Software_Engineering,4.6,1,TH315,Software_Engineering_Based_Project_20,Software_Engineering,Research,April,2024,62,95,4.5,74
F122,S222,3.45,BBA,8,99,T208,AI,4.0,2,TH314,AI_Based_Project_24,AI,Application,February,2024,64,144,4.0,75
F123,S223,3.43,CSE,7,96,T210,AI,3.8,3,TH315,AI_Based_Project_12,AI,Research,July,2026,69,142,4.7,78
F124,S224,3.5,CSE,7,88,T203,Data_Science,4.7,3,TH305,Data_Science_Based_Project_49,Data_Science,Research,October,2024,90,143,3.5,97
F125,S225,3.99,EEE,8,97,T201,IoT,4.4,2,TH310,IoT_Based_Project_49,IoT,Research,May,2025,63,107,4.6,71
F126,S226,3.24,BBA,8,94,T203,Cybersecurity,4.9,1,TH303,Cybersecurity_Based_Project_14,Cybersecurity,Application,December,2025,62,130,3.8,71
F127,S227,2.86,EEE,7,84,T205,Networking,5.0,2,TH314,Networking_Based_Project_2,Networking,Research,November,2026,91,92,4.1,92
F128,S228,3.74,BBA,7,92,T210,Data_Science,4.7,3,TH315,Data_Science_Based_Project_46,Data_Science,Application,February,2026,64,94,4.2,98
F129,S229,3.67,EEE,8,87,T210,Cybersecurity,4.1,1,TH317,Cybersecurity_Based_Project_38,Cybersecurity,Research,March,2024,72,110,4.8,92
F130,S230,3.32,ENG,8,91,T208,AI,5.0,3,TH317,AI_Based_Project_42,AI,Research,September,2025,67,158,4.2,78
F131,S231,3.97,ENG,8,74,T206,IoT,4.1,2,TH305,IoT_Based_Project_20,IoT,Application,August,2024,83,140,3.9,98
F132,S232,3.93,EEE,8,73,T206,AI,4.9,3,TH310,AI_Based_Project_6,AI,Research,March,2024,81,104,4.2,70
F133,S233,3.37,ENG,8,89,T204,Data_Science,4.5,2,TH307,Data_Science_Based_Project_47,Data_Science,Research,April,2025,82,91,4.0,85
F134,S234,2.69,ENG,8,79,T205,Cybersecurity,4.2,3,TH316,Cybersecurity_Based_Project_32,Cybersecurity,Research,March,2025,70,159,4.7,85
F135,S235,3.78,BBA,7,100,T201,Software_Engineering,4.0,3,TH319,Software_Engineering_Based_Project_11,Software_Engineering,Research,August,2024,70,150,3.7,71
F136,S236,2.74,EEE,8,70,T204,Software_Engineering,4.6,1,TH314,Software_Engineering_Based_Project_12,Software_Engineering,Research,October,2026,66,99,4.8,72
F137,S237,2.83,EEE,7,87,T205,AI,4.8,2,TH306,AI_Based_Project_45,AI,Research,June,2024,71,124,3.5,99
F138,S238,3.22,ENG,7,100,T206,AI,4.8,1,TH316,AI_Based_Project_48,AI,Application,November,2026,93,158,4.0,78
F139,S239,2.87,ENG,8,87,T209,Networking,4.1,3,TH305,Networking_Based_Project_32,Networking,Research,December,2024,88,139,4.3,88
F140,S240,3.28,ENG,8,84,T205,Networking,4.3,3,TH310,Networking_Based_Project_24,Networking,Research,August,2025,88,122,4.3,100
F141,S241,3.83,CSE,8,79,T209,IoT,4.8,2,TH306,IoT_Based_Project_45,IoT,Research,January,2026,89,124,4.9,99
F142,S242,2.54,CSE,8,74,T201,Cybersecurity,4.6,3,TH313,Cybersecurity_Based_Project_50,Cybersecurity,Application,August,2025,88,101,4.1,77
F143,S243,3.65,EEE,8,71,T204,Data_Science,4.6,1,TH303,Data_Science_Based_Project_24,Data_Science,Research,November,2024,90,139,5.0,96
F144,S244,3.62,CSE,7,78,T206,Data_Science,4.7,3,TH317,Data_Science_Based_Project_48,Data_Science,Application,November,2026,83,160,3.5,73
F145,S245,3.23,BBA,7,76,T201,Networking,4.1,3,TH301,Networking_Based_Project_34,Networking,Application,May,2025,82,146,4.2,87
F146,S246,3.26,EEE,8,90,T203,IoT,4.2,3,TH310,IoT_Based_Project_32,IoT,Research,January,2024,93,118,3.6,72
F147,S247,3.47,ENG,8,71,T209,Data_Science,4.6,1,TH318,Data_Science_Based_Project_19,Data_Science,Research,July,2024,82,157,4.8,80
F148,S248,3.13,ENG,7,72,T206,Cybersecurity,5.0,3,TH306,Cybersecurity_Based_Project_30,Cybersecurity,Research,May,2024,69,109,4.5,73
F149,S249,3.06,BBA,8,90,T202,Software_Engineering,4.1,3,TH316,Software_Engineering_Based_Project_11,Software_Engineering,Application,February,2026,95,120,3.8,85
F150,S250,3.33,EEE,7,94,T203,Data_Science,4.4,3,TH318,Data_Science_Based_Project_47,Data_Science,Research,August,2025,74,153,3.6,88
F151,S251,3.63,EEE,8,87,T208,IoT,4.0,3,TH315,IoT_Based_Project_16,IoT,Research,May,2024,83,118,4.2,78
F152,S252,3.3,BBA,7,98,T204,Software_Engineering,4.3,2,TH311,Software_Engineering_Based_Project_4,Software_Engineering,Research,December,2024,64,146,4.6,79
F153,S253,3.89,BBA,7,90,T210,Data_Science,4.6,1,TH303,Data_Science_Based_Project_30,Data_Science,Research,October,2025,71,156,4.3,95
F154,S254,3.57,CSE,8,81,T203,IoT,4.6,1,TH301,IoT_Based_Project_36,IoT,Application,July,2025,76,150,3.6,86
F155,S255,3.8,ENG,7,88,T204,Cybersecurity,3.9,3,TH317,Cybersecurity_Based_Project_8,Cybersecurity,Application,November,2024,67,151,3.9,71
F156,S256,3.97,CSE,7,74,T208,IoT,4.6,3,TH313,IoT_Based_Project_13,IoT,Application,November,2025,67,93,3.7,85
F157,S257,2.61,ENG,8,89,T204,Data_Science,4.2,1,TH310,Data_Science_Based_Project_46,Data_Science,Application,September,2026,64,146,4.4,72
F158,S258,3.85,BBA,8,99,T210,IoT,4.6,2,TH312,IoT_Based_Project_7,IoT,Application,January,2026,95,108,4.7,78
F159,S259,2.61,ENG,8,82,T208,Cybersecurity,4.7,2,TH310,Cybersecurity_Based_Project_43,Cybersecurity,Application,July,2026,69,131,3.9,70
F160,S260,3.22,CSE,8,77,T202,Networking,3.9,2,TH319,Networking_Based_Project_18,Networking,Application,March,2025,60,139,3.9,91
F161,S261,3.39,EEE,8,85,T201,Software_Engineering,4.9,2,TH306,Software_Engineering_Based_Project_11,Software_Engineering,Research,May,2025,88,129,3.8,92
F162,S262,3.49,CSE,7,77,T203,IoT,5.0,1,TH312,IoT_Based_Project_9,IoT,Application,May,2025,78,146,4.9,76
F163,S263,3.11,BBA,8,84,T208,Software_Engineering,3.9,3,TH312,Software_Engineering_Based_Project_5,Software_Engineering,Research,February,2026,69,125,4.3,79
F164,S264,3.02,CSE,7,74,T202,AI,4.0,1,TH304,AI_Based_Project_19,AI,Application,March,2026,90,129,4.7,92
F165,S265,2.65,BBA,8,72,T209,Networking,4.7,1,TH317,Networking_Based_Project_23,Networking,Research,April,2025,72,109,3.6,91
F166,S266,2.91,ENG,7,99,T210,IoT,4.3,3,TH313,IoT_Based_Project_50,IoT,Application,February,2026,82,157,3.9,71
F167,S267,2.6,EEE,7,74,T203,Data_Science,4.8,2,TH320,Data_Science_Based_Project_14,Data_Science,Application,April,2024,67,153,4.9,84
F168,S268,3.22,EEE,8,100,T207,AI,4.6,1,TH315,AI_Based_Project_14,AI,Application,February,2024,64,109,4.5,89
F169,S269,3.22,BBA,7,98,T201,Networking,4.7,2,TH308,Networking_Based_Project_31,Networking,Research,July,2024,95,98,4.2,88
F170,S270,2.79,ENG,7,78,T209,Networking,4.7,3,TH306,Networking_Based_Project_6,Networking,Application,March,2024,85,97,4.1,96
F171,S271,2.69,BBA,8,81,T206,AI,4.5,2,TH305,AI_Based_Project_9,AI,Research,May,2026,74,151,3.9,97
F172,S272,3.33,BBA,8,80,T201,Networking,4.5,2,TH316,Networking_Based_Project_36,Networking,Research,December,2024,79,112,4.2,74
F173,S273,3.58,ENG,7,96,T210,IoT,4.4,1,TH307,IoT_Based_Project_2,IoT,Application,February,2025,76,114,4.0,81
F174,S274,3.28,BBA,8,93,T201,Cybersecurity,4.6,3,TH303,Cybersecurity_Based_Project_5,Cybersecurity,Research,December,2024,65,131,4.8,70
F175,S275,3.54,EEE,7,89,T207,Data_Science,3.9,2,TH302,Data_Science_Based_Project_18,Data_Science,Application,December,2026,73,95,3.9,83
F176,S276,3.14,EEE,8,96,T205,Cybersecurity,4.9,2,TH307,Cybersecurity_Based_Project_16,Cybersecurity,Application,October,2025,68,151,3.6,85
F177,S277,3.78,ENG,8,93,T209,AI,4.5,2,TH317,AI_Based_Project_37,AI,Application,May,2025,77,144,4.4,75
F178,S278,3.06,BBA,8,89,T203,IoT,4.5,2,TH304,IoT_Based_Project_28,IoT,Application,May,2026,79,117,4.3,73
F179,S279,3.75,CSE,7,86,T203,Software_Engineering,4.9,1,TH314,Software_Engineering_Based_Project_31,Software_Engineering,Application,January,2024,69,95,3.7,88
F180,S280,2.59,ENG,7,82,T210,Cybersecurity,4.2,1,TH320,Cybersecurity_Based_Project_14,Cybersecurity,Research,September,2026,75,139,3.7,77
F181,S281,2.78,CSE,7,92,T205,AI,4.7,2,TH320,AI_Based_Project_47,AI,Application,October,2025,60,103,4.3,100
F182,S282,3.36,BBA,8,100,T201,Software_Engineering,4.3,2,TH317,Software_Engineering_Based_Project_29,Software_Engineering,Research,July,2024,63,116,4.1,96
F183,S283,3.72,CSE,7,83,T206,Software_Engineering,4.0,1,TH314,Software_Engineering_Based_Project_24,Software_Engineering,Research,September,2024,72,98,5.0,98
F184,S284,2.72,CSE,7,94,T202,Cybersecurity,4.8,2,TH310,Cybersecurity_Based_Project_28,Cybersecurity,Application,August,2026,69,145,4.1,79
F185,S285,3.85,CSE,8,70,T207,Cybersecurity,3.8,1,TH316,Cybersecurity_Based_Project_48,Cybersecurity,Research,June,2026,80,131,3.5,98
F186,S286,2.96,CSE,7,85,T204,Data_Science,4.2,1,TH317,Data_Science_Based_Project_34,Data_Science,Application,March,2026,79,132,4.9,79
F187,S287,2.76,EEE,7,72,T203,Data_Science,4.4,3,TH318,Data_Science_Based_Project_24,Data_Science,Application,December,2024,92,156,3.8,92
F188,S288,3.09,EEE,7,87,T205,Software_Engineering,3.9,1,TH308,Software_Engineering_Based_Project_48,Software_Engineering,Research,October,2024,94,90,4.8,92
F189,S289,2.55,ENG,8,100,T202,Data_Science,4.9,1,TH308,Data_Science_Based_Project_6,Data_Science,Application,June,2024,92,137,3.5,88
F190,S290,2.58,BBA,8,80,T208,Cybersecurity,4.7,2,TH315,Cybersecurity_Based_Project_1,Cybersecurity,Application,November,2026,66,118,3.8,95
F191,S291,2.96,BBA,8,81,T204,Networking,4.7,1,TH307,Networking_Based_Project_8,Networking,Application,May,2026,60,127,4.1,82
F192,S292,2.76,BBA,7,71,T210,Data_Science,4.7,2,TH311,Data_Science_Based_Project_10,Data_Science,Research,April,2024,87,149,4.0,81
F193,S293,3.66,BBA,7,87,T206,Data_Science,4.4,1,TH301,Data_Science_Based_Project_20,Data_Science,Application,February,2024,63,148,3.6,92
F194,S294,2.88,CSE,8,76,T207,Software_Engineering,4.8,3,TH314,Software_Engineering_Based_Project_11,Software_Engineering,Research,November,2026,72,146,4.0,80
F195,S295,3.93,CSE,7,91,T201,Data_Science,4.0,2,TH310,Data_Science_Based_Project_20,Data_Science,Application,February,2024,80,137,4.5,92
F196,S296,2.85,EEE,8,86,T208,AI,4.8,1,TH301,AI_Based_Project_32,AI,Research,December,2024,77,110,4.3,86
F197,S297,2.81,BBA,8,84,T210,Cybersecurity,5.0,3,TH301,Cybersecurity_Based_Project_8,Cybersecurity,Research,February,2026,63,146,3.7,73
F198,S298,3.76,ENG,7,76,T202,Data_Science,4.8,1,TH316,Data_Science_Based_Project_26,Data_Science,Application,September,2024,65,105,4.9,91
F199,S299,2.51,CSE,8,90,T201,Software_Engineering,4.6,3,TH307,Software_Engineering_Based_Project_43,Software_Engineering,Application,November,2025,87,149,4.8,89
F200,S300,2.74,CSE,8,95,T205,Data_Science,4.4,1,TH304,Data_Science_Based_Project_42,Data_Science,Research,March,2025,95,96,3.7,75
F201,S301,3.59,BBA,7,92,T208,Software_Engineering,4.6,1,TH319,Software_Engineering_Based_Project_16,Software_Engineering,Research,October,2024,88,141,4.6,99
F202,S302,2.9,BBA,7,84,T201,IoT,4.5,1,TH307,IoT_Based_Project_6,IoT,Research,June,2025,84,97,4.7,77
F203,S303,3.15,ENG,8,92,T204,Cybersecurity,4.8,2,TH311,Cybersecurity_Based_Project_5,Cybersecurity,Research,January,2025,71,130,4.4,84
F204,S304,2.61,EEE,8,75,T209,Data_Science,4.0,1,TH304,Data_Science_Based_Project_25,Data_Science,Application,April,2024,73,95,4.1,86
F205,S305,2.66,BBA,8,71,T202,Networking,3.9,3,TH317,Networking_Based_Project_13,Networking,Research,October,2025,70,122,4.5,94
F206,S306,2.7,EEE,7,94,T201,IoT,4.1,2,TH305,IoT_Based_Project_39,IoT,Research,February,2024,65,143,4.4,81
F207,S307,2.68,EEE,8,80,T204,IoT,4.2,3,TH311,IoT_Based_Project_47,IoT,Research,January,2026,89,92,3.7,72
F208,S308,2.79,ENG,7,77,T203,Data_Science,4.8,1,TH310,Data_Science_Based_Project_11,Data_Science,Research,April,2025,92,100,3.7,74
F209,S309,2.83,BBA,8,78,T204,Networking,4.7,3,TH302,Networking_Based_Project_41,Networking,Research,August,2025,68,94,4.5,77
F210,S310,3.41,ENG,8,72,T206,Data_Science,4.2,3,TH320,Data_Science_Based_Project_1,Data_Science,Research,May,2026,66,135,4.4,90
F211,S311,3.28,CSE,7,92,T207,Cybersecurity,5.0,3,TH311,Cybersecurity_Based_Project_3,Cybersecurity,Application,May,2025,91,115,4.7,97
F212,S312,3.91,ENG,7,70,T203,Networking,4.7,1,TH320,Networking_Based_Project_19,Networking,Research,July,2024,77,132,3.8,98
F213,S313,3.76,BBA,7,76,T203,Networking,4.9,2,TH317,Networking_Based_Project_43,Networking,Application,November,2026,85,132,3.7,74
F214,S314,3.4,CSE,8,89,T202,AI,4.2,3,TH301,AI_Based_Project_12,AI,Application,June,2024,64,107,3.6,84
F215,S315,2.89,ENG,7,87,T205,Networking,4.1,3,TH306,Networking_Based_Project_22,Networking,Application,March,2026,88,108,4.9,88
F216,S316,2.81,EEE,7,76,T206,Software_Engineering,4.7,1,TH312,Software_Engineering_Based_Project_36,Software_Engineering,Research,September,2025,66,103,4.1,76
F217,S317,3.51,BBA,8,88,T208,Data_Science,3.9,3,TH304,Data_Science_Based_Project_13,Data_Science,Research,April,2025,95,123,4.0,99
F218,S318,3.16,BBA,8,86,T201,Software_Engineering,4.5,2,TH305,Software_Engineering_Based_Project_3,Software_Engineering,Research,December,2025,71,148,4.3,77
F219,S319,2.76,ENG,8,79,T202,Networking,4.0,3,TH306,Networking_Based_Project_22,Networking,Research,April,2024,78,154,4.5,89
F220,S320,3.18,BBA,7,84,T204,AI,4.0,3,TH302,AI_Based_Project_40,AI,Research,September,2026,86,145,3.9,75
F221,S321,2.51,EEE,7,81,T209,AI,4.6,2,TH316,AI_Based_Project_18,AI,Application,September,2026,95,133,3.8,87
F222,S322,2.71,EEE,8,93,T201,Cybersecurity,3.9,3,TH313,Cybersecurity_Based_Project_17,Cybersecurity,Research,July,2026,83,90,4.7,77
F223,S323,3.88,EEE,8,95,T209,Cybersecurity,4.8,1,TH317,Cybersecurity_Based_Project_28,Cybersecurity,Application,April,2024,85,127,4.4,83
F224,S324,3.25,CSE,8,91,T201,Data_Science,3.9,1,TH305,Data_Science_Based_Project_5,Data_Science,Research,November,2024,80,132,4.8,100
F225,S325,2.62,CSE,8,77,T203,IoT,4.3,3,TH317,IoT_Based_Project_44,IoT,Application,March,2024,71,137,4.5,70
F226,S326,3.29,ENG,7,75,T209,Cybersecurity,3.9,2,TH305,Cybersecurity_Based_Project_12,Cybersecurity,Research,June,2024,68,145,4.0,79
F227,S327,3.35,BBA,7,85,T206,Software_Engineering,4.1,3,TH308,Software_Engineering_Based_Project_50,Software_Engineering,Research,December,2025,81,134,3.9,93
F228,S328,3.94,BBA,8,92,T208,Software_Engineering,4.9,1,TH309,Software_Engineering_Based_Project_6,Software_Engineering,Research,September,2026,84,150,4.7,80
F229,S329,2.78,ENG,8,80,T207,IoT,3.9,3,TH317,IoT_Based_Project_5,IoT,Research,December,2026,76,146,4.1,72
F230,S330,3.32,CSE,7,93,T207,IoT,4.5,3,TH311,IoT_Based_Project_47,IoT,Application,May,2025,70,141,3.8,88
F231,S331,2.77,CSE,7,96,T204,Data_Science,4.7,1,TH314,Data_Science_Based_Project_33,Data_Science,Research,March,2026,94,99,3.9,81
F232,S332,3.95,ENG,7,73,T208,Cybersecurity,4.9,1,TH318,Cybersecurity_Based_Project_18,Cybersecurity,Application,May,2024,80,108,4.4,87
F233,S333,3.72,BBA,7,74,T206,Data_Science,3.9,2,TH306,Data_Science_Based_Project_10,Data_Science,Research,January,2024,76,139,3.9,74
F234,S334,3.97,EEE,7,99,T204,AI,4.0,2,TH314,AI_Based_Project_46,AI,Research,November,2025,86,154,4.5,92
F235,S335,3.4,CSE,8,72,T202,Cybersecurity,3.9,2,TH301,Cybersecurity_Based_Project_21,Cybersecurity,Research,March,2024,90,132,4.3,70
F236,S336,3.6,CSE,8,100,T207,IoT,4.2,2,TH309,IoT_Based_Project_31,IoT,Research,March,2026,79,156,4.0,75
F237,S337,3.48,BBA,8,93,T209,Networking,4.8,1,TH310,Networking_Based_Project_33,Networking,Application,May,2025,91,122,4.2,96
F238,S338,2.68,CSE,7,95,T202,Networking,4.0,3,TH316,Networking_Based_Project_30,Networking,Research,September,2025,90,109,3.7,77
F239,S339,3.62,CSE,7,77,T201,AI,4.7,2,TH301,AI_Based_Project_20,AI,Application,September,2026,76,110,4.3,78
F240,S340,3.7,BBA,7,96,T205,Cybersecurity,4.9,2,TH310,Cybersecurity_Based_Project_49,Cybersecurity,Research,March,2025,91,118,5.0,76
F241,S341,3.39,CSE,8,86,T204,Software_Engineering,4.2,3,TH302,Software_Engineering_Based_Project_20,Software_Engineering,Research,June,2024,78,105,4.7,84
F242,S342,2.75,ENG,8,86,T210,Data_Science,4.1,3,TH316,Data_Science_Based_Project_28,Data_Science,Application,September,2024,74,122,4.1,75
F243,S343,3.27,CSE,7,99,T203,AI,3.9,1,TH319,AI_Based_Project_47,AI,Application,April,2026,95,148,4.4,82
F244,S344,3.85,BBA,8,76,T207,AI,4.7,3,TH319,AI_Based_Project_29,AI,Application,October,2024,69,115,4.0,75
F245,S345,3.78,CSE,8,78,T201,Software_Engineering,4.8,1,TH312,Software_Engineering_Based_Project_22,Software_Engineering,Application,October,2024,88,115,3.9,77
F246,S346,3.08,EEE,8,75,T207,AI,4.8,3,TH316,AI_Based_Project_39,AI,Research,July,2026,89,117,4.8,99
F247,S347,3.93,BBA,7,88,T206,IoT,4.0,3,TH301,IoT_Based_Project_4,IoT,Research,May,2026,90,150,4.4,82
F248,S348,3.51,EEE,8,79,T208,IoT,5.0,3,TH311,IoT_Based_Project_21,IoT,Application,May,2026,87,135,4.4,96
F249,S349,3.94,BBA,7,72,T204,Networking,4.0,3,TH317,Networking_Based_Project_45,Networking,Research,October,2026,63,146,4.1,75
F250,S350,2.84,EEE,7,91,T204,Data_Science,4.5,2,TH308,Data_Science_Based_Project_34,Data_Science,Application,September,2025,85,117,4.5,99
F251,S351,3.45,ENG,7,88,T209,Networking,4.4,1,TH318,Networking_Based_Project_34,Networking,Research,July,2024,90,150,3.7,91
F252,S352,3.71,EEE,8,80,T205,AI,4.5,3,TH317,AI_Based_Project_16,AI,Research,October,2025,85,155,3.6,98
F253,S353,2.78,BBA,7,96,T201,Networking,4.1,1,TH316,Networking_Based_Project_17,Networking,Application,August,2025,68,139,4.5,100
F254,S354,3.07,BBA,7,93,T207,IoT,4.6,1,TH301,IoT_Based_Project_50,IoT,Research,July,2024,77,132,4.7,70
F255,S355,3.48,BBA,7,71,T206,IoT,3.9,2,TH304,IoT_Based_Project_50,IoT,Application,March,2025,92,122,4.6,84
F256,S356,3.42,CSE,7,84,T204,Networking,3.8,3,TH317,Networking_Based_Project_36,Networking,Research,July,2026,81,128,3.6,78
F257,S357,3.59,EEE,8,80,T205,IoT,4.3,1,TH302,IoT_Based_Project_37,IoT,Application,December,2024,94,146,4.6,81
F258,S358,3.11,EEE,8,94,T207,Software_Engineering,4.1,3,TH304,Software_Engineering_Based_Project_23,Software_Engineering,Application,May,2024,73,92,4.4,89
F259,S359,3.62,BBA,7,88,T202,Cybersecurity,3.9,1,TH308,Cybersecurity_Based_Project_35,Cybersecurity,Research,July,2025,60,95,3.9,88
F260,S360,2.64,BBA,8,73,T201,IoT,5.0,2,TH310,IoT_Based_Project_15,IoT,Research,September,2025,66,128,4.2,80
F261,S361,3.94,CSE,7,89,T204,AI,4.4,2,TH317,AI_Based_Project_7,AI,Application,December,2025,93,101,4.1,92
F262,S362,2.88,ENG,7,83,T210,Data_Science,4.2,3,TH315,Data_Science_Based_Project_49,Data_Science,Research,July,2024,69,157,4.6,92
F263,S363,3.43,BBA,8,84,T202,Cybersecurity,4.4,2,TH320,Cybersecurity_Based_Project_43,Cybersecurity,Application,January,2026,72,93,4.5,87
F264,S364,3.44,EEE,8,92,T210,Networking,4.0,3,TH301,Networking_Based_Project_37,Networking,Research,May,2026,81,137,3.6,85
F265,S365,3.73,CSE,7,97,T204,AI,4.4,3,TH305,AI_Based_Project_27,AI,Research,December,2026,71,136,4.2,94
F266,S366,2.68,ENG,7,70,T208,IoT,4.4,3,TH303,IoT_Based_Project_34,IoT,Research,May,2025,72,150,4.2,99
F267,S367,2.85,EEE,7,81,T208,Networking,4.4,3,TH313,Networking_Based_Project_33,Networking,Research,August,2024,81,115,4.0,91
F268,S368,2.51,ENG,8,80,T210,Cybersecurity,4.1,2,TH315,Cybersecurity_Based_Project_21,Cybersecurity,Research,January,2025,88,120,3.5,96
F269,S369,2.84,CSE,8,97,T204,Software_Engineering,4.6,3,TH308,Software_Engineering_Based_Project_13,Software_Engineering,Application,September,2024,70,114,4.5,75
F270,S370,3.9,ENG,7,98,T205,Software_Engineering,4.9,1,TH302,Software_Engineering_Based_Project_24,Software_Engineering,Research,December,2025,73,97,3.6,94
F271,S371,2.86,ENG,7,73,T203,Cybersecurity,4.9,2,TH312,Cybersecurity_Based_Project_9,Cybersecurity,Application,October,2025,92,160,3.7,72
F272,S372,3.46,BBA,7,83,T208,Cybersecurity,4.0,2,TH313,Cybersecurity_Based_Project_14,Cybersecurity,Research,December,2026,82,115,3.7,73
F273,S373,3.67,BBA,7,82,T209,Networking,4.2,2,TH318,Networking_Based_Project_40,Networking,Research,February,2024,94,98,4.0,99
F274,S374,2.78,CSE,8,75,T207,Software_Engineering,4.2,1,TH313,Software_Engineering_Based_Project_1,Software_Engineering,Research,April,2026,84,134,3.8,92
F275,S375,3.61,BBA,8,91,T210,Data_Science,4.0,3,TH312,Data_Science_Based_Project_41,Data_Science,Research,June,2025,79,153,3.8,90
F276,S376,3.79,BBA,7,83,T207,Cybersecurity,4.9,2,TH312,Cybersecurity_Based_Project_46,Cybersecurity,Research,March,2024,78,138,4.5,88
F277,S377,3.69,ENG,7,93,T202,IoT,4.1,2,TH309,IoT_Based_Project_49,IoT,Research,January,2024,88,106,4.9,98
F278,S378,3.44,BBA,8,100,T208,IoT,4.8,1,TH312,IoT_Based_Project_22,IoT,Research,November,2024,60,120,4.3,94
F279,S379,3.94,BBA,8,98,T209,Data_Science,4.8,2,TH314,Data_Science_Based_Project_42,Data_Science,Research,January,2025,80,157,4.7,95
F280,S380,3.75,EEE,7,98,T201,Software_Engineering,4.3,2,TH303,Software_Engineering_Based_Project_38,Software_Engineering,Application,January,2024,78,133,4.6,71
F281,S381,3.61,EEE,8,78,T207,Software_Engineering,4.9,3,TH313,Software_Engineering_Based_Project_7,Software_Engineering,Application,March,2024,63,152,4.9,86
F282,S382,3.05,ENG,7,72,T202,Data_Science,4.0,1,TH303,Data_Science_Based_Project_9,Data_Science,Application,August,2024,91,109,3.9,85
F283,S383,2.95,BBA,8,89,T201,Data_Science,4.3,2,TH303,Data_Science_Based_Project_16,Data_Science,Application,August,2024,87,144,4.6,98
F284,S384,2.99,EEE,8,74,T201,Cybersecurity,4.9,2,TH301,Cybersecurity_Based_Project_2,Cybersecurity,Application,October,2024,82,160,4.6,97
F285,S385,2.83,BBA,8,74,T206,AI,5.0,2,TH314,AI_Based_Project_12,AI,Application,April,2024,85,95,3.7,98
F286,S386,3.11,EEE,8,93,T208,Software_Engineering,4.7,1,TH307,Software_Engineering_Based_Project_25,Software_Engineering,Research,March,2025,63,102,5.0,74
F287,S387,3.77,BBA,8,71,T203,Networking,5.0,3,TH317,Networking_Based_Project_29,Networking,Research,April,2024,74,110,4.3,84
F288,S388,2.79,EEE,8,82,T202,AI,4.3,3,TH319,AI_Based_Project_1,AI,Application,September,2026,67,100,3.9,71
F289,S389,3.13,EEE,7,88,T207,IoT,4.0,3,TH319,IoT_Based_Project_31,IoT,Research,January,2026,69,90,4.7,86
F290,S390,2.95,BBA,7,87,T203,IoT,4.2,1,TH319,IoT_Based_Project_39,IoT,Application,June,2025,65,126,3.6,98
F291,S391,2.54,CSE,8,99,T209,Cybersecurity,4.1,2,TH314,Cybersecurity_Based_Project_11,Cybersecurity,Application,August,2026,77,111,4.6,85
F292,S392,3.47,EEE,8,95,T204,IoT,4.7,3,TH309,IoT_Based_Project_21,IoT,Research,December,2024,63,99,3.9,81
F293,S393,3.49,ENG,7,96,T202,Data_Science,4.8,2,TH320,Data_Science_Based_Project_48,Data_Science,Application,September,2026,76,153,4.6,80
F294,S394,3.51,CSE,7,77,T202,IoT,4.9,1,TH317,IoT_Based_Project_34,IoT,Research,November,2025,70,152,4.8,90
F295,S395,2.91,CSE,7,71,T202,AI,4.0,1,TH307,AI_Based_Project_37,AI,Research,July,2026,68,138,4.5,73
F296,S396,3.68,ENG,8,75,T205,Cybersecurity,4.5,1,TH312,Cybersecurity_Based_Project_13,Cybersecurity,Research,October,2026,86,159,3.8,90
F297,S397,3.78,CSE,8,83,T202,Networking,4.5,2,TH301,Networking_Based_Project_28,Networking,Application,January,2026,95,140,3.6,92
F298,S398,3.5,ENG,8,80,T202,AI,4.6,1,TH311,AI_Based_Project_21,AI,Application,May,2024,91,135,3.6,74
F299,S399,3.41,ENG,7,99,T205,Networking,4.1,2,TH313,Networking_Based_Project_23,Networking,Application,October,2026,90,125,4.7,95
F300,S400,3.3,BBA,8,93,T209,Software_Engineering,4.5,2,TH319,Software_Engineering_Based_Project_45,Software_Engineering,Research,September,2024,75,108,4.1,93
F301,S401,3.18,ENG,8,74,T201,IoT,4.7,3,TH304,IoT_Based_Project_11,IoT,Research,August,2026,86,105,4.1,88
F302,S402,2.75,BBA,8,73,T205,Cybersecurity,4.9,2,TH311,Cybersecurity_Based_Project_42,Cybersecurity,Research,April,2025,91,109,4.2,76
F303,S403,2.81,CSE,8,89,T210,Software_Engineering,4.0,1,TH319,Software_Engineering_Based_Project_7,Software_Engineering,Research,March,2024,70,135,3.7,88
F304,S404,3.21,BBA,8,94,T204,Data_Science,4.5,1,TH316,Data_Science_Based_Project_12,Data_Science,Research,May,2024,64,91,4.0,97
F305,S405,3.35,ENG,7,89,T203,Cybersecurity,4.0,1,TH317,Cybersecurity_Based_Project_15,Cybersecurity,Application,January,2025,73,99,3.5,83
F306,S406,2.52,CSE,7,95,T202,IoT,4.1,3,TH310,IoT_Based_Project_25,IoT,Application,June,2025,83,110,4.5,98
F307,S407,3.86,CSE,7,72,T201,Networking,4.6,3,TH306,Networking_Based_Project_40,Networking,Research,December,2026,93,137,3.6,94
F308,S408,3.51,EEE,7,73,T205,AI,4.7,1,TH310,AI_Based_Project_17,AI,Research,January,2024,65,109,4.1,83
F309,S409,3.51,ENG,7,100,T204,Cybersecurity,4.4,2,TH315,Cybersecurity_Based_Project_35,Cybersecurity,Research,July,2024,69,106,4.6,84
F310,S410,3.02,ENG,7,83,T203,AI,4.3,1,TH301,AI_Based_Project_6,AI,Application,December,2025,84,137,3.6,81
F311,S411,3.3,BBA,8,95,T201,IoT,4.7,2,TH302,IoT_Based_Project_22,IoT,Application,September,2025,79,133,3.9,88
F312,S412,3.48,ENG,8,85,T201,Software_Engineering,3.9,1,TH318,Software_Engineering_Based_Project_25,Software_Engineering,Research,April,2024,95,110,4.7,82
F313,S413,2.51,EEE,7,91,T202,Software_Engineering,4.7,3,TH301,Software_Engineering_Based_Project_35,Software_Engineering,Research,October,2024,69,95,4.5,82
F314,S414,2.55,EEE,7,72,T205,Software_Engineering,4.6,3,TH310,Software_Engineering_Based_Project_15,Software_Engineering,Research,June,2026,95,104,4.2,80
F315,S415,3.47,ENG,7,87,T207,Networking,5.0,1,TH301,Networking_Based_Project_8,Networking,Research,August,2026,79,132,3.9,78
F316,S416,3.37,EEE,8,99,T205,Networking,4.0,1,TH305,Networking_Based_Project_21,Networking,Research,May,2024,66,143,3.7,78
F317,S417,3.66,ENG,7,90,T203,Networking,4.7,3,TH301,Networking_Based_Project_16,Networking,Application,June,2026,83,155,3.9,77
F318,S418,3.52,ENG,7,83,T207,Cybersecurity,4.5,2,TH312,Cybersecurity_Based_Project_21,Cybersecurity,Application,August,2026,90,100,4.0,79
F319,S419,2.79,ENG,8,89,T203,Networking,4.9,1,TH306,Networking_Based_Project_20,Networking,Application,June,2025,69,121,3.7,91
F320,S420,3.29,CSE,8,90,T209,Networking,4.0,3,TH311,Networking_Based_Project_44,Networking,Application,February,2024,74,92,3.7,91
F321,S421,3.05,EEE,7,89,T202,Software_Engineering,4.1,2,TH313,Software_Engineering_Based_Project_20,Software_Engineering,Application,June,2026,75,92,4.4,73
F322,S422,2.97,CSE,8,89,T209,IoT,4.4,2,TH319,IoT_Based_Project_19,IoT,Research,February,2026,79,101,3.9,74
F323,S423,2.93,ENG,8,88,T203,Networking,3.9,1,TH319,Networking_Based_Project_5,Networking,Application,May,2024,81,143,3.6,82
F324,S424,3.75,CSE,7,94,T209,Data_Science,4.1,2,TH304,Data_Science_Based_Project_28,Data_Science,Research,March,2025,77,155,4.3,88
F325,S425,3.05,BBA,8,81,T210,AI,3.9,1,TH308,AI_Based_Project_21,AI,Application,September,2026,93,153,3.5,96
F326,S426,2.54,ENG,8,79,T204,Data_Science,3.9,2,TH308,Data_Science_Based_Project_32,Data_Science,Application,January,2026,89,110,4.2,90
F327,S427,3.47,ENG,8,76,T210,Software_Engineering,4.4,2,TH316,Software_Engineering_Based_Project_26,Software_Engineering,Research,March,2024,80,148,3.7,84
F328,S428,2.55,EEE,8,73,T207,Cybersecurity,4.3,1,TH309,Cybersecurity_Based_Project_28,Cybersecurity,Application,September,2025,72,118,4.9,85
F329,S429,3.82,BBA,7,79,T203,Software_Engineering,4.5,1,TH319,Software_Engineering_Based_Project_47,Software_Engineering,Application,July,2026,82,126,3.8,99
F330,S430,3.2,BBA,7,72,T201,Data_Science,4.6,2,TH310,Data_Science_Based_Project_21,Data_Science,Application,July,2024,65,106,4.8,78
F331,S431,3.91,BBA,7,70,T207,Networking,4.2,3,TH301,Networking_Based_Project_48,Networking,Research,April,2026,79,129,4.8,98
F332,S432,2.72,ENG,7,93,T202,IoT,4.0,1,TH301,IoT_Based_Project_50,IoT,Research,May,2026,87,118,5.0,83
F333,S433,3.36,CSE,7,77,T205,Software_Engineering,4.6,3,TH314,Software_Engineering_Based_Project_47,Software_Engineering,Application,October,2024,88,128,5.0,79
F334,S434,3.07,BBA,7,93,T206,Networking,4.3,2,TH319,Networking_Based_Project_2,Networking,Research,November,2026,60,129,3.6,92
F335,S435,3.02,EEE,7,83,T209,Software_Engineering,4.3,1,TH306,Software_Engineering_Based_Project_26,Software_Engineering,Application,January,2026,87,152,4.8,99
F336,S436,3.13,BBA,7,88,T204,AI,4.4,1,TH305,AI_Based_Project_22,AI,Application,March,2026,68,131,3.9,87
F337,S437,2.61,ENG,8,94,T205,AI,4.5,1,TH302,AI_Based_Project_50,AI,Application,September,2026,82,152,4.6,88
F338,S438,2.65,EEE,7,76,T210,Cybersecurity,4.7,2,TH303,Cybersecurity_Based_Project_14,Cybersecurity,Application,August,2024,72,136,4.9,90
F339,S439,3.19,BBA,7,98,T208,Data_Science,4.6,3,TH310,Data_Science_Based_Project_49,Data_Science,Application,November,2025,84,129,4.6,72
F340,S440,3.45,EEE,8,81,T201,Networking,4.3,2,TH302,Networking_Based_Project_14,Networking,Research,March,2026,63,141,4.9,99
F341,S441,3.57,ENG,7,93,T207,Cybersecurity,4.9,2,TH319,Cybersecurity_Based_Project_36,Cybersecurity,Research,October,2024,72,154,4.0,71
F342,S442,2.69,EEE,8,94,T207,Networking,4.8,2,TH319,Networking_Based_Project_4,Networking,Research,February,2024,77,97,4.2,71
F343,S443,3.95,EEE,7,74,T201,Data_Science,4.3,2,TH307,Data_Science_Based_Project_32,Data_Science,Application,October,2026,70,137,4.2,95
F344,S444,3.77,CSE,7,76,T202,Cybersecurity,4.9,1,TH301,Cybersecurity_Based_Project_14,Cybersecurity,Application,January,2025,61,141,4.6,78
F345,S445,3.61,BBA,8,82,T201,Data_Science,4.6,3,TH309,Data_Science_Based_Project_41,Data_Science,Application,January,2025,66,134,4.9,89
F346,S446,3.75,EEE,7,71,T201,Networking,4.3,3,TH307,Networking_Based_Project_9,Networking,Research,June,2025,60,113,4.0,71
F347,S447,3.76,ENG,8,70,T202,Networking,4.8,3,TH302,Networking_Based_Project_48,Networking,Application,June,2026,89,147,4.5,74
F348,S448,3.6,EEE,8,75,T208,Software_Engineering,4.0,1,TH314,Software_Engineering_Based_Project_50,Software_Engineering,Application,December,2026,62,100,4.2,86
F349,S449,2.8,BBA,8,85,T209,Software_Engineering,4.9,2,TH311,Software_Engineering_Based_Project_36,Software_Engineering,Application,February,2024,89,100,3.6,71
F350,S450,3.73,EEE,7,84,T208,IoT,4.6,3,TH320,IoT_Based_Project_33,IoT,Application,March,2025,82,112,3.9,90
F351,S451,3.31,CSE,7,90,T205,Software_Engineering,4.9,2,TH304,Software_Engineering_Based_Project_40,Software_Engineering,Research,March,2025,84,108,4.6,89
F352,S452,3.26,EEE,7,72,T204,Cybersecurity,3.9,3,TH308,Cybersecurity_Based_Project_7,Cybersecurity,Application,August,2025,82,114,3.7,99
F353,S453,2.57,BBA,8,98,T202,AI,4.5,2,TH306,AI_Based_Project_7,AI,Research,April,2024,92,91,4.2,79
F354,S454,2.71,CSE,7,88,T207,IoT,4.5,2,TH309,IoT_Based_Project_25,IoT,Research,December,2026,89,112,4.2,84
F355,S455,2.59,ENG,8,71,T209,Software_Engineering,4.8,3,TH301,Software_Engineering_Based_Project_37,Software_Engineering,Application,June,2024,84,145,3.9,77
F356,S456,4.0,ENG,8,76,T209,Cybersecurity,4.3,2,TH303,Cybersecurity_Based_Project_7,Cybersecurity,Application,August,2026,92,140,4.0,94
F357,S457,3.8,CSE,7,83,T207,Networking,4.1,2,TH305,Networking_Based_Project_8,Networking,Research,February,2024,67,110,3.9,83
F358,S458,2.92,EEE,8,88,T209,Software_Engineering,4.0,2,TH313,Software_Engineering_Based_Project_28,Software_Engineering,Application,August,2025,79,110,3.7,73
F359,S459,3.6,ENG,7,90,T206,Networking,4.9,1,TH301,Networking_Based_Project_11,Networking,Research,November,2024,94,145,4.8,74
F360,S460,3.82,BBA,7,76,T203,IoT,4.9,2,TH306,IoT_Based_Project_2,IoT,Research,September,2024,75,133,5.0,98
F361,S461,3.9,ENG,8,93,T207,Data_Science,4.8,3,TH312,Data_Science_Based_Project_40,Data_Science,Application,December,2025,80,116,4.2,78
F362,S462,3.43,ENG,7,79,T209,Software_Engineering,4.0,3,TH302,Software_Engineering_Based_Project_17,Software_Engineering,Application,September,2024,93,148,4.3,83
F363,S463,2.82,CSE,7,73,T208,AI,4.0,2,TH320,AI_Based_Project_17,AI,Research,March,2026,73,159,4.0,75
F364,S464,3.59,EEE,7,98,T202,Data_Science,4.1,2,TH310,Data_Science_Based_Project_36,Data_Science,Research,September,2024,84,109,4.5,83
F365,S465,2.54,BBA,8,71,T210,AI,4.2,2,TH312,AI_Based_Project_13,AI,Application,August,2025,86,120,4.4,88
F366,S466,2.84,ENG,7,89,T204,IoT,4.6,2,TH301,IoT_Based_Project_1,IoT,Application,April,2025,84,135,4.7,84
F367,S467,3.31,BBA,8,89,T203,Software_Engineering,4.6,1,TH309,Software_Engineering_Based_Project_30,Software_Engineering,Research,July,2026,63,157,4.3,97
F368,S468,2.86,EEE,7,86,T202,AI,4.7,3,TH308,AI_Based_Project_43,AI,Application,August,2024,79,129,4.5,72
F369,S469,2.51,BBA,8,98,T209,AI,4.4,2,TH318,AI_Based_Project_19,AI,Research,March,2024,83,159,3.8,72
F370,S470,3.66,ENG,8,86,T208,Networking,4.5,1,TH313,Networking_Based_Project_43,Networking,Application,January,2026,60,114,4.0,89
F371,S471,3.88,ENG,8,84,T204,AI,4.2,3,TH315,AI_Based_Project_21,AI,Research,February,2026,89,138,4.6,75
F372,S472,2.94,EEE,7,93,T203,Networking,4.8,3,TH309,Networking_Based_Project_17,Networking,Application,February,2025,80,97,3.7,90
F373,S473,2.6,ENG,7,74,T210,Software_Engineering,4.5,2,TH315,Software_Engineering_Based_Project_49,Software_Engineering,Research,March,2025,79,112,4.9,89
F374,S474,3.09,ENG,8,84,T209,Software_Engineering,4.3,2,TH301,Software_Engineering_Based_Project_43,Software_Engineering,Application,January,2024,93,91,4.1,98
F375,S475,3.61,CSE,8,82,T206,IoT,3.8,2,TH306,IoT_Based_Project_19,IoT,Application,June,2024,82,154,4.4,76
F376,S476,3.88,CSE,7,92,T201,Cybersecurity,3.9,1,TH318,Cybersecurity_Based_Project_39,Cybersecurity,Application,March,2024,90,137,4.0,94
F377,S477,3.62,ENG,7,78,T204,Networking,4.6,2,TH302,Networking_Based_Project_28,Networking,Research,July,2024,81,115,4.8,78
F378,S478,3.23,CSE,8,95,T210,Networking,3.8,1,TH304,Networking_Based_Project_35,Networking,Application,May,2024,94,133,4.6,91
F379,S479,3.49,EEE,8,99,T209,IoT,4.0,2,TH306,IoT_Based_Project_44,IoT,Application,January,2025,72,124,4.6,90
F380,S480,3.0,BBA,8,80,T204,Cybersecurity,4.0,1,TH309,Cybersecurity_Based_Project_25,Cybersecurity,Application,January,2024,73,139,4.5,80
F381,S481,3.48,CSE,8,80,T204,Networking,4.6,1,TH313,Networking_Based_Project_42,Networking,Research,November,2025,93,104,4.3,97
F382,S482,2.6,CSE,8,70,T202,AI,4.9,1,TH315,AI_Based_Project_42,AI,Research,November,2025,74,110,4.1,93
F383,S483,3.27,BBA,8,85,T207,AI,4.1,2,TH311,AI_Based_Project_50,AI,Application,July,2024,83,108,4.1,80
F384,S484,3.32,ENG,8,97,T206,AI,4.9,2,TH316,AI_Based_Project_6,AI,Research,January,2024,90,115,4.9,93
F385,S485,2.77,CSE,8,100,T203,Networking,4.5,3,TH305,Networking_Based_Project_17,Networking,Research,January,2026,92,157,3.6,82
F386,S486,3.3,BBA,8,95,T208,IoT,4.6,3,TH318,IoT_Based_Project_2,IoT,Research,August,2024,70,129,3.7,76
F387,S487,3.24,ENG,8,93,T210,AI,4.3,3,TH317,AI_Based_Project_48,AI,Application,May,2025,79,106,4.5,79
F388,S488,3.75,ENG,8,85,T210,Data_Science,4.8,2,TH316,Data_Science_Based_Project_45,Data_Science,Research,February,2026,91,109,4.9,74
F389,S489,3.41,CSE,8,70,T210,Data_Science,4.1,3,TH305,Data_Science_Based_Project_47,Data_Science,Application,November,2024,63,116,3.6,73
F390,S490,2.54,EEE,8,81,T207,Cybersecurity,4.0,3,TH312,Cybersecurity_Based_Project_6,Cybersecurity,Research,April,2024,84,100,4.0,81
F391,S491,2.54,BBA,7,72,T201,Networking,4.7,1,TH316,Networking_Based_Project_7,Networking,Research,November,2025,66,153,3.6,77
F392,S492,2.61,EEE,7,78,T204,Data_Science,4.2,2,TH305,Data_Science_Based_Project_29,Data_Science,Research,February,2024,89,137,3.7,84
F393,S493,3.27,ENG,8,82,T202,Data_Science,4.1,1,TH320,Data_Science_Based_Project_27,Data_Science,Research,October,2025,63,124,4.6,92
F394,S494,3.59,EEE,8,88,T207,AI,4.8,2,TH314,AI_Based_Project_22,AI,Research,November,2025,90,104,3.8,90
F395,S495,3.08,EEE,7,87,T202,Networking,4.7,3,TH301,Networking_Based_Project_43,Networking,Research,August,2024,64,101,4.5,77
F396,S496,3.29,CSE,7,78,T208,AI,4.6,1,TH317,AI_Based_Project_14,AI,Application,November,2026,88,130,4.6,78
F397,S497,2.57,ENG,8,79,T204,AI,4.4,2,TH307,AI_Based_Project_42,AI,Research,December,2025,80,142,4.3,76
F398,S498,2.96,BBA,7,78,T210,Networking,4.6,1,TH318,Networking_Based_Project_25,Networking,Application,December,2025,66,120,4.1,95
F399,S499,3.41,BBA,8,79,T201,AI,4.1,2,TH307,AI_Based_Project_13,AI,Application,June,2024,68,139,4.0,81
F400,S500,3.08,CSE,8,73,T210,IoT,4.1,3,TH307,IoT_Based_Project_19,IoT,Research,June,2026,65,147,4.2,98
F401,S501,3.31,BBA,7,97,T204,Networking,4.5,2,TH320,Networking_Based_Project_9,Networking,Research,November,2024,64,155,4.5,90
F402,S502,3.65,BBA,8,70,T205,Data_Science,4.0,3,TH313,Data_Science_Based_Project_42,Data_Science,Application,October,2024,89,118,5.0,78
F403,S503,3.22,EEE,8,85,T208,Software_Engineering,4.7,2,TH307,Software_Engineering_Based_Project_14,Software_Engineering,Research,November,2025,63,116,4.2,92
F404,S504,3.86,ENG,8,72,T204,Networking,4.2,3,TH314,Networking_Based_Project_34,Networking,Research,February,2024,64,96,4.9,96
F405,S505,3.89,ENG,7,83,T204,Cybersecurity,4.9,1,TH309,Cybersecurity_Based_Project_1,Cybersecurity,Research,September,2024,79,134,4.7,78
F406,S506,2.74,ENG,8,100,T203,Data_Science,4.1,3,TH309,Data_Science_Based_Project_28,Data_Science,Research,December,2025,80,133,3.9,74
F407,S507,3.8,CSE,7,74,T208,AI,4.3,3,TH312,AI_Based_Project_25,AI,Research,May,2026,60,104,4.2,98
F408,S508,3.03,EEE,7,72,T206,Networking,4.5,3,TH315,Networking_Based_Project_41,Networking,Application,July,2025,91,114,3.9,79
F409,S509,3.08,BBA,7,91,T210,IoT,4.0,1,TH309,IoT_Based_Project_6,IoT,Application,September,2026,82,106,4.1,99
F410,S510,2.65,BBA,7,79,T206,Data_Science,4.2,1,TH309,Data_Science_Based_Project_25,Data_Science,Application,January,2024,60,90,4.7,85
F411,S511,3.1,CSE,8,94,T202,Data_Science,4.8,2,TH305,Data_Science_Based_Project_23,Data_Science,Research,April,2026,89,134,4.1,77
F412,S512,3.59,CSE,7,87,T209,Cybersecurity,4.7,1,TH310,Cybersecurity_Based_Project_36,Cybersecurity,Application,December,2025,71,159,4.8,95
F413,S513,3.28,BBA,7,77,T207,AI,4.9,2,TH316,AI_Based_Project_30,AI,Application,April,2024,93,95,4.0,83
F414,S514,3.02,ENG,7,71,T209,Networking,4.9,1,TH312,Networking_Based_Project_29,Networking,Application,February,2026,78,156,4.9,70
F415,S515,3.57,ENG,8,70,T205,Software_Engineering,4.6,1,TH308,Software_Engineering_Based_Project_14,Software_Engineering,Research,February,2025,81,136,4.3,96
F416,S516,2.77,CSE,7,88,T203,Software_Engineering,4.2,1,TH305,Software_Engineering_Based_Project_26,Software_Engineering,Research,September,2025,83,145,4.1,99
F417,S517,2.76,EEE,7,94,T210,AI,4.6,2,TH308,AI_Based_Project_15,AI,Research,October,2024,95,115,4.8,70
F418,S518,2.66,BBA,8,89,T206,Networking,4.2,2,TH319,Networking_Based_Project_50,Networking,Application,July,2026,92,157,3.9,72
F419,S519,3.14,BBA,7,73,T205,Data_Science,4.7,3,TH316,Data_Science_Based_Project_24,Data_Science,Research,February,2026,93,113,4.3,73
F420,S520,2.65,EEE,7,85,T209,Networking,4.0,3,TH320,Networking_Based_Project_31,Networking,Application,December,2024,94,150,4.1,97
F421,S521,2.76,EEE,7,72,T203,Software_Engineering,4.9,3,TH316,Software_Engineering_Based_Project_4,Software_Engineering,Research,September,2026,78,152,4.0,79
F422,S522,3.61,BBA,7,93,T201,AI,4.5,3,TH313,AI_Based_Project_18,AI,Research,May,2025,67,126,4.9,77
F423,S523,3.65,ENG,8,89,T202,Data_Science,4.6,1,TH317,Data_Science_Based_Project_25,Data_Science,Application,May,2026,94,90,4.0,97
F424,S524,3.39,BBA,8,80,T203,Networking,4.9,1,TH308,Networking_Based_Project_18,Networking,Research,January,2024,85,91,4.7,100
F425,S525,3.87,EEE,7,84,T201,AI,4.6,1,TH320,AI_Based_Project_3,AI,Research,August,2024,80,122,4.7,92
F426,S526,3.8,CSE,8,79,T205,Software_Engineering,4.0,2,TH305,Software_Engineering_Based_Project_30,Software_Engineering,Research,November,2024,63,100,3.7,71
F427,S527,2.76,CSE,8,90,T205,Cybersecurity,4.0,3,TH314,Cybersecurity_Based_Project_17,Cybersecurity,Research,October,2024,87,141,3.9,97
F428,S528,2.75,BBA,7,86,T205,Data_Science,4.0,3,TH315,Data_Science_Based_Project_29,Data_Science,Research,January,2026,76,142,4.3,72
F429,S529,2.67,ENG,8,87,T204,Cybersecurity,4.5,3,TH305,Cybersecurity_Based_Project_16,Cybersecurity,Research,December,2024,91,150,3.7,86
F430,S530,3.61,ENG,8,100,T206,Data_Science,4.0,3,TH310,Data_Science_Based_Project_21,Data_Science,Research,October,2026,83,111,4.0,80
F431,S531,3.56,CSE,8,95,T204,Networking,3.8,1,TH303,Networking_Based_Project_39,Networking,Application,October,2025,70,102,4.6,93
F432,S532,3.64,EEE,7,71,T206,Networking,3.9,1,TH306,Networking_Based_Project_20,Networking,Research,October,2025,72,120,4.4,71
F433,S533,2.93,BBA,7,73,T201,Cybersecurity,4.9,2,TH301,Cybersecurity_Based_Project_7,Cybersecurity,Application,October,2025,61,107,4.4,70
F434,S534,3.06,EEE,8,70,T207,Data_Science,4.1,3,TH314,Data_Science_Based_Project_32,Data_Science,Research,August,2025,71,148,3.7,76
F435,S535,3.95,ENG,8,88,T203,IoT,4.7,1,TH310,IoT_Based_Project_39,IoT,Research,December,2024,71,137,4.4,72
F436,S536,3.67,BBA,8,72,T205,Cybersecurity,4.3,3,TH304,Cybersecurity_Based_Project_16,Cybersecurity,Research,March,2025,73,108,3.6,71
F437,S537,3.85,ENG,7,99,T210,AI,4.1,3,TH318,AI_Based_Project_30,AI,Application,January,2025,83,160,4.5,85
F438,S538,2.92,BBA,8,80,T203,Cybersecurity,4.8,2,TH315,Cybersecurity_Based_Project_44,Cybersecurity,Application,March,2026,69,142,4.5,76
F439,S539,3.11,EEE,8,92,T201,Software_Engineering,4.1,3,TH309,Software_Engineering_Based_Project_50,Software_Engineering,Application,March,2026,95,98,5.0,99
F440,S540,3.55,BBA,8,87,T203,Cybersecurity,3.9,3,TH303,Cybersecurity_Based_Project_2,Cybersecurity,Application,August,2024,79,105,4.2,94
F441,S541,3.35,ENG,7,100,T209,Data_Science,4.9,3,TH306,Data_Science_Based_Project_44,Data_Science,Research,May,2024,86,95,4.2,87
F442,S542,2.89,ENG,7,81,T205,Software_Engineering,4.5,1,TH312,Software_Engineering_Based_Project_17,Software_Engineering,Application,April,2024,65,151,4.6,74
F443,S543,3.58,CSE,7,74,T205,Software_Engineering,4.6,3,TH314,Software_Engineering_Based_Project_31,Software_Engineering,Research,May,2025,60,154,4.9,97
F444,S544,3.54,CSE,8,89,T204,AI,4.8,3,TH311,AI_Based_Project_50,AI,Research,February,2026,93,92,4.6,86
F445,S545,3.51,ENG,7,82,T207,Cybersecurity,4.7,3,TH316,Cybersecurity_Based_Project_3,Cybersecurity,Application,November,2024,79,138,3.9,82
F446,S546,2.92,BBA,7,78,T210,AI,4.6,1,TH313,AI_Based_Project_16,AI,Research,April,2024,62,105,4.9,99
F447,S547,3.7,EEE,8,71,T203,AI,4.3,3,TH320,AI_Based_Project_21,AI,Research,December,2024,75,105,4.5,88
F448,S548,3.49,CSE,8,72,T210,Software_Engineering,4.3,3,TH318,Software_Engineering_Based_Project_37,Software_Engineering,Research,August,2026,90,113,4.0,76
F449,S549,2.52,EEE,7,87,T207,Software_Engineering,4.6,1,TH320,Software_Engineering_Based_Project_40,Software_Engineering,Research,July,2026,86,145,3.5,88
F450,S550,2.77,ENG,7,77,T208,IoT,4.7,1,TH301,IoT_Based_Project_4,IoT,Research,February,2026,90,130,3.5,84
F451,S551,3.28,CSE,8,75,T202,Data_Science,4.3,3,TH303,Data_Science_Based_Project_19,Data_Science,Application,March,2024,80,96,3.9,84
F452,S552,3.72,CSE,7,71,T203,Cybersecurity,4.5,3,TH313,Cybersecurity_Based_Project_27,Cybersecurity,Research,July,2026,64,100,4.2,72
F453,S553,3.23,ENG,8,91,T210,Networking,4.4,3,TH316,Networking_Based_Project_22,Networking,Research,January,2025,87,113,3.6,92
F454,S554,3.26,CSE,7,95,T207,AI,4.5,1,TH318,AI_Based_Project_18,AI,Research,April,2025,87,103,3.6,76
F455,S555,2.89,CSE,8,89,T203,Cybersecurity,4.9,3,TH314,Cybersecurity_Based_Project_44,Cybersecurity,Application,October,2024,61,158,3.9,100
F456,S556,2.93,CSE,8,70,T201,Cybersecurity,4.9,2,TH313,Cybersecurity_Based_Project_50,Cybersecurity,Research,July,2026,88,130,3.9,80
F457,S557,2.94,BBA,8,82,T207,Software_Engineering,5.0,2,TH305,Software_Engineering_Based_Project_14,Software_Engineering,Research,November,2025,81,104,3.5,100
F458,S558,2.84,BBA,8,83,T207,AI,4.3,2,TH306,AI_Based_Project_15,AI,Application,May,2025,95,97,5.0,73
F459,S559,3.76,ENG,8,73,T206,IoT,4.2,2,TH314,IoT_Based_Project_16,IoT,Research,October,2024,66,158,4.8,97
F460,S560,3.31,CSE,8,86,T204,AI,4.6,1,TH315,AI_Based_Project_39,AI,Application,November,2025,62,158,4.6,93
F461,S561,3.79,BBA,7,100,T208,AI,4.5,2,TH319,AI_Based_Project_50,AI,Application,July,2024,91,129,3.8,74
F462,S562,2.7,ENG,7,97,T210,IoT,4.0,3,TH301,IoT_Based_Project_1,IoT,Research,August,2025,79,150,3.8,98
F463,S563,3.29,BBA,7,87,T206,Data_Science,3.9,2,TH302,Data_Science_Based_Project_33,Data_Science,Application,September,2026,77,109,4.5,80
F464,S564,2.73,BBA,8,86,T205,Cybersecurity,3.9,3,TH308,Cybersecurity_Based_Project_4,Cybersecurity,Research,February,2025,81,123,4.5,96
F465,S565,2.72,EEE,8,91,T206,Cybersecurity,4.5,2,TH313,Cybersecurity_Based_Project_16,Cybersecurity,Application,December,2025,90,120,4.6,88
F466,S566,2.85,ENG,8,88,T203,Cybersecurity,4.3,2,TH304,Cybersecurity_Based_Project_46,Cybersecurity,Application,June,2026,95,120,4.0,93
F467,S567,3.86,EEE,8,83,T204,Data_Science,4.1,1,TH301,Data_Science_Based_Project_50,Data_Science,Research,July,2026,72,112,4.4,73
F468,S568,3.01,BBA,8,90,T204,Networking,4.5,3,TH319,Networking_Based_Project_39,Networking,Application,November,2024,94,122,4.5,78
F469,S569,3.45,EEE,7,89,T210,Software_Engineering,4.4,2,TH318,Software_Engineering_Based_Project_42,Software_Engineering,Application,October,2026,63,159,4.4,70
F470,S570,2.61,ENG,7,86,T207,Cybersecurity,4.6,3,TH307,Cybersecurity_Based_Project_10,Cybersecurity,Application,June,2024,89,108,4.4,93
F471,S571,3.83,BBA,7,84,T206,Cybersecurity,4.9,3,TH302,Cybersecurity_Based_Project_37,Cybersecurity,Research,January,2026,77,98,3.7,80
F472,S572,2.55,ENG,7,94,T202,Software_Engineering,4.7,3,TH309,Software_Engineering_Based_Project_5,Software_Engineering,Research,June,2024,95,109,3.7,79
F473,S573,3.74,BBA,7,85,T209,Software_Engineering,3.8,1,TH310,Software_Engineering_Based_Project_16,Software_Engineering,Application,July,2024,83,115,4.0,87
F474,S574,3.79,BBA,8,73,T210,Networking,3.9,3,TH313,Networking_Based_Project_34,Networking,Application,December,2024,81,150,4.5,87
F475,S575,3.8,ENG,7,93,T201,Software_Engineering,4.8,3,TH303,Software_Engineering_Based_Project_25,Software_Engineering,Application,May,2025,84,128,4.3,89
F476,S576,3.64,BBA,8,86,T204,IoT,4.3,3,TH320,IoT_Based_Project_49,IoT,Application,January,2026,94,126,4.7,99
F477,S577,2.64,BBA,8,88,T206,IoT,4.2,1,TH306,IoT_Based_Project_23,IoT,Research,August,2026,95,93,4.6,90
F478,S578,3.16,ENG,7,85,T201,Data_Science,4.7,2,TH317,Data_Science_Based_Project_39,Data_Science,Application,January,2024,65,126,4.6,93
F479,S579,3.56,CSE,7,74,T207,Data_Science,4.6,2,TH304,Data_Science_Based_Project_15,Data_Science,Application,February,2024,65,154,4.1,79
F480,S580,3.83,ENG,8,98,T203,IoT,4.5,2,TH303,IoT_Based_Project_42,IoT,Research,December,2024,80,132,4.9,74
F481,S581,3.03,CSE,8,93,T207,AI,4.7,2,TH301,AI_Based_Project_22,AI,Application,January,2026,61,108,4.1,95
F482,S582,2.95,CSE,7,82,T202,Data_Science,4.4,2,TH316,Data_Science_Based_Project_16,Data_Science,Research,October,2025,94,144,4.1,82
F483,S583,3.42,BBA,7,98,T209,IoT,4.9,2,TH301,IoT_Based_Project_49,IoT,Application,March,2026,77,149,4.3,95
F484,S584,3.01,EEE,8,90,T210,IoT,3.9,1,TH320,IoT_Based_Project_23,IoT,Research,November,2024,63,111,4.4,80
F485,S585,2.87,EEE,8,93,T209,AI,3.9,1,TH302,AI_Based_Project_32,AI,Application,April,2025,70,114,3.8,81
F486,S586,3.24,ENG,8,90,T206,AI,4.6,1,TH307,AI_Based_Project_32,AI,Application,May,2025,95,126,3.5,85
F487,S587,2.84,BBA,8,93,T202,Cybersecurity,4.8,3,TH304,Cybersecurity_Based_Project_5,Cybersecurity,Research,January,2024,61,144,4.6,96
F488,S588,3.69,BBA,7,90,T201,Data_Science,4.8,2,TH305,Data_Science_Based_Project_36,Data_Science,Research,November,2026,81,107,4.8,81
F489,S589,3.92,BBA,8,74,T209,Cybersecurity,3.9,2,TH319,Cybersecurity_Based_Project_49,Cybersecurity,Application,November,2026,70,99,4.4,85
F490,S590,2.71,EEE,7,81,T208,IoT,4.4,3,TH308,IoT_Based_Project_26,IoT,Research,October,2025,64,143,3.5,100
F491,S591,2.74,BBA,8,94,T205,Software_Engineering,3.9,2,TH319,Software_Engineering_Based_Project_31,Software_Engineering,Application,February,2025,62,155,4.3,99
F492,S592,3.38,BBA,7,98,T209,Data_Science,4.8,1,TH304,Data_Science_Based_Project_47,Data_Science,Application,June,2026,71,122,4.0,75
F493,S593,2.56,CSE,7,96,T202,Software_Engineering,4.7,1,TH304,Software_Engineering_Based_Project_7,Software_Engineering,Application,February,2025,73,145,4.2,89
F494,S594,2.74,CSE,8,82,T210,Software_Engineering,4.7,1,TH305,Software_Engineering_Based_Project_34,Software_Engineering,Application,December,2024,91,139,4.1,87
F495,S595,2.75,ENG,7,76,T204,Software_Engineering,4.8,2,TH315,Software_Engineering_Based_Project_48,Software_Engineering,Application,February,2026,64,147,4.1,82
F496,S596,4.0,CSE,8,93,T210,Data_Science,4.6,3,TH319,Data_Science_Based_Project_43,Data_Science,Research,April,2024,77,130,4.0,76
F497,S597,2.84,ENG,7,71,T207,IoT,4.9,1,TH315,IoT_Based_Project_26,IoT,Application,January,2026,88,117,3.9,85
F498,S598,3.8,EEE,8,94,T203,Data_Science,4.7,1,TH319,Data_Science_Based_Project_26,Data_Science,Application,April,2024,90,129,4.8,82
F499,S599,3.59,EEE,8,97,T207,IoT,4.4,1,TH319,IoT_Based_Project_47,IoT,Research,January,2026,78,121,4.3,73
F500,S600,3.11,BBA,8,80,T201,Cybersecurity,4.8,1,TH305,Cybersecurity_Based_Project_27,Cybersecurity,Application,June,2024,65,152,3.9,82